LAMMPS mixture_MACE_XXX.data

7500 atoms
3 atom types
0.0 44.0 xlo xhi
0.0 44.0 ylo yhi
0.0 44.0 zlo zhi

Atoms # atomic

1 1 38.58620000 30.40930000 30.18330000
2 2 37.63460000 30.50120000 29.37680000
3 2 38.55300000 29.60680000 31.21900000
4 2 39.66430000 31.06940000 30.12460000
5 1 39.65290000 29.86320000 32.10560000
6 1 40.49530000 30.76520000 31.18610000
7 3 40.14620000 28.96720000 32.32980000
8 3 39.19750000 30.35330000 33.01740000
9 3 41.23570000 30.14350000 30.74630000
10 3 40.90900000 31.68270000 31.61400000
11 1 34.63200000 17.96080000 3.66370000
12 2 35.48930000 17.32590000 3.08397000
13 2 34.42880000 18.05740000 5.00363000
14 2 33.75870000 18.78190000 3.05677000
15 1 33.44960000 19.00220000 5.32020000
16 1 32.88670000 19.44160000 3.97615000
17 3 33.94350000 19.85520000 5.83521000
18 3 32.63790000 18.62710000 5.93482000
19 3 33.06490000 20.44860000 3.80684000
20 3 31.81960000 19.19080000 3.83096000
21 1 15.85900000 9.05669000 25.51320000
22 2 15.87790000 8.81338000 24.32050000
23 2 16.61390000 9.96150000 26.10240000
24 2 15.08610000 8.47481000 26.38350000
25 1 16.12840000 10.24550000 27.42270000
26 1 15.47510000 8.89868000 27.73280000
27 3 15.46480000 11.10830000 27.50060000
28 3 16.95370000 10.33590000 28.19320000
29 3 14.54890000 9.09378000 28.34610000
30 3 16.01530000 8.09392000 28.28370000
31 1 25.96620000 5.21736000 14.85260000
32 2 26.00050000 6.41277000 14.66000000
33 2 26.81890000 4.38949000 14.23830000
34 2 25.21690000 4.56490000 15.67430000
35 1 26.82030000 3.10667000 14.84080000
36 1 25.50750000 3.14185000 15.62800000
37 3 27.68400000 2.77734000 15.47860000
38 3 27.04870000 2.44697000 13.94590000
39 3 25.53020000 2.66556000 16.65150000
40 3 24.69420000 2.65911000 15.13210000
41 1 13.78320000 5.20326000 28.88180000
42 2 12.57670000 5.21297000 28.90000000
43 2 14.47540000 5.67334000 29.90350000
44 2 14.61490000 4.77736000 27.86560000
45 1 15.89330000 5.65588000 29.60910000
46 1 15.94360000 5.12050000 28.19770000
47 3 16.37710000 4.85804000 30.17560000
48 3 16.52600000 6.48987000 29.77280000
49 3 16.64530000 4.25580000 28.01510000
50 3 16.41960000 5.88328000 27.52610000
51 1 0.43467800 8.46324000 0.67343200
52 2 0.35130400 7.25147000 0.66067100
53 2 43.32370000 9.23728000 1.32334000
54 2 1.20020000 9.23794000 43.62160000
55 1 43.57390000 10.63120000 1.13361000
56 1 1.09472000 10.59650000 0.22121100
57 3 43.72540000 11.04020000 2.06510000
58 3 42.74630000 11.05120000 0.53418300
59 3 2.05940000 10.98400000 0.70474200
60 3 1.01698000 11.20420000 42.97540000
61 1 2.93878000 13.63540000 11.82730000
62 2 2.99932000 13.54590000 12.99630000
63 2 3.92038000 13.55210000 10.93970000
64 2 1.78776000 13.62810000 11.14700000
65 1 3.43440000 13.59850000 9.59158000
66 1 1.91903000 13.70250000 9.78133000
67 3 3.81186000 12.75900000 9.00106000
68 3 3.85357000 14.48800000 9.20905000
69 3 1.32853000 13.10140000 9.13934000
70 3 1.66030000 14.70290000 9.59845000
71 1 7.77382000 1.99639000 41.33810000
72 2 7.67575000 3.21512000 41.00180000
73 2 8.15781000 1.06693000 40.57560000
74 2 7.56662000 1.45377000 42.56000000
75 1 8.58232000 43.68820000 41.28700000
76 1 7.75747000 43.74370000 42.53230000
77 3 9.60561000 43.80420000 41.52580000
78 3 8.48347000 42.74950000 40.70720000
79 3 8.08932000 43.39680000 43.54590000
80 3 6.75705000 43.23770000 42.42210000
81 1 13.44520000 11.84640000 23.36000000
82 2 14.21460000 12.79140000 23.21570000
83 2 12.72380000 11.47650000 22.33350000
84 2 13.25740000 11.00180000 24.33610000
85 1 11.92880000 10.35330000 22.66070000
86 1 12.48770000 9.91439000 23.98660000
87 3 11.91430000 9.51723000 21.93090000
88 3 10.90660000 10.67010000 22.76040000
89 3 13.06070000 8.93105000 23.89050000
90 3 11.77410000 9.60493000 24.70630000
91 1 7.79898000 16.86920000 20.14770000
92 2 7.05623000 16.47940000 21.03290000
93 2 8.61020000 17.86740000 20.23700000
94 2 7.89810000 16.34370000 18.95880000
95 1 9.37388000 18.05860000 19.08330000
96 1 8.69654000 17.08440000 18.13500000
97 3 10.36800000 17.75250000 19.25650000
98 3 9.20466000 19.04980000 18.76340000
99 3 9.43327000 16.36740000 17.62660000
100 3 8.20148000 17.56820000 17.40200000
101 1 9.02212000 0.85302900 15.25980000
102 2 7.80260000 0.86149500 15.14200000
103 2 9.81437000 1.61034000 16.01080000
104 2 9.86379000 43.82600000 14.39840000
105 1 11.13360000 1.59265000 15.43490000
106 1 11.27870000 0.32259800 14.65940000
107 3 11.97350000 1.77805000 16.12750000
108 3 11.13460000 2.43062000 14.79640000
109 3 11.60930000 43.32760000 15.45930000
110 3 12.03840000 0.36470200 13.87050000
111 1 11.50540000 18.14800000 15.13830000
112 2 10.74730000 17.78030000 14.26240000
113 2 11.11830000 18.72900000 16.23170000
114 2 12.84100000 18.08760000 15.08360000
115 1 12.25330000 18.94650000 17.04870000
116 1 13.43310000 18.81450000 16.14100000
117 3 12.27550000 18.25120000 17.87410000
118 3 12.18510000 19.98030000 17.41500000
119 3 14.25160000 18.31100000 16.70410000
120 3 13.74550000 19.83110000 15.73200000
121 1 8.89244000 17.11720000 10.67220000
122 2 8.09672000 16.17430000 10.70190000
123 2 10.18970000 16.90090000 10.36410000
124 2 8.65095000 18.31150000 11.06640000
125 1 10.96010000 17.98710000 10.73660000
126 1 9.85304000 19.07580000 10.93940000
127 3 11.76120000 18.25100000 10.05770000
128 3 11.40050000 17.73520000 11.57310000
129 3 9.70092000 19.67470000 9.97505000
130 3 9.93204000 19.68890000 11.81650000
131 1 21.29380000 25.24450000 34.88660000
132 2 21.80300000 24.18860000 34.99270000
133 2 20.62230000 25.83660000 35.84860000
134 2 21.54870000 26.16710000 34.00460000
135 1 20.21560000 27.18270000 35.61450000
136 1 21.06990000 27.38530000 34.40050000
137 3 20.59090000 27.92930000 36.25880000
138 3 19.21980000 27.36110000 35.53170000
139 3 21.91460000 28.02020000 34.64400000
140 3 20.55240000 28.00580000 33.62780000
141 1 40.86680000 1.53624000 12.66540000
142 2 40.65000000 1.39428000 13.87670000
143 2 40.41290000 2.58598000 11.91670000
144 2 41.47580000 0.60168000 11.83420000
145 1 40.68980000 2.43247000 10.57940000
146 1 41.32390000 1.03938000 10.56250000
147 3 41.28600000 3.18043000 10.06620000
148 3 39.76470000 2.34015000 10.05360000
149 3 42.32490000 1.13624000 10.15020000
150 3 40.89120000 0.35349700 9.85732000
151 1 12.45340000 32.43460000 39.76990000
152 2 11.51490000 33.15730000 39.41260000
153 2 13.61430000 32.30600000 39.16530000
154 2 12.49750000 31.70050000 40.86750000
155 1 14.57070000 31.76290000 40.05230000
156 1 13.62220000 30.87640000 40.84980000
157 3 15.14580000 32.52890000 40.56200000
158 3 15.37420000 31.19580000 39.55840000
159 3 14.17750000 30.58590000 41.75500000
160 3 13.42910000 29.96070000 40.24290000
161 1 7.37361000 29.88450000 36.41160000
162 2 7.21067000 30.14040000 35.13130000
163 2 8.26840000 30.40990000 37.20430000
164 2 6.65489000 28.97960000 37.11180000
165 1 8.12938000 29.95060000 38.54620000
166 1 6.70855000 29.33320000 38.48190000
167 3 8.31802000 30.80550000 39.16230000
168 3 8.83251000 29.16150000 38.85900000
169 3 5.99983000 30.03340000 38.86890000
170 3 6.68691000 28.40670000 39.05480000
171 1 42.77560000 28.37600000 20.06320000
172 2 41.59900000 28.33850000 19.62700000
173 2 43.24850000 27.57750000 21.07470000
174 2 0.16249700 28.85140000 19.37090000
175 1 0.89112600 27.80920000 21.27040000
176 1 1.34319000 28.45510000 19.91650000
177 3 1.41995000 26.86670000 21.47410000
178 3 1.03415000 28.59310000 22.04280000
179 3 1.80503000 27.69850000 19.32510000
180 3 2.05086000 29.26800000 20.12600000
181 1 20.46980000 30.32840000 40.66160000
182 2 20.60880000 31.48530000 41.06660000
183 2 21.41610000 29.63450000 40.03790000
184 2 19.34970000 29.65330000 40.76670000
185 1 20.83080000 28.46870000 39.48890000
186 1 19.41120000 28.43500000 40.08170000
187 3 21.43990000 27.53050000 39.94650000
188 3 20.71010000 28.45140000 38.41740000
189 3 19.21510000 27.65110000 40.82400000
190 3 18.61080000 28.38040000 39.31990000
191 1 8.81338000 10.92600000 32.32010000
192 2 9.74027000 10.18890000 32.01590000
193 2 8.94025000 11.95790000 33.19610000
194 2 7.59661000 10.81620000 31.91140000
195 1 7.64865000 12.47450000 33.39550000
196 1 6.79492000 11.89880000 32.23730000
197 3 7.82077000 13.55250000 33.23940000
198 3 7.47041000 12.38880000 34.39550000
199 3 6.59219000 12.55700000 31.35020000
200 3 5.77964000 11.52500000 32.60500000
201 1 36.03770000 2.20983000 24.51300000
202 2 36.29950000 1.62090000 25.51450000
203 2 35.02400000 3.08164000 24.47630000
204 2 36.72470000 2.30175000 23.44140000
205 1 34.97360000 3.74936000 23.23920000
206 1 35.90990000 2.92094000 22.39360000
207 3 35.53250000 4.60053000 23.29550000
208 3 33.98790000 3.95661000 22.87370000
209 3 36.52820000 3.48094000 21.80480000
210 3 35.26200000 2.25403000 21.80880000
211 1 24.37760000 7.85259000 39.55580000
212 2 25.33670000 8.52657000 39.80420000
213 2 24.47870000 6.88969000 38.69570000
214 2 23.17100000 7.88667000 40.03180000
215 1 23.38200000 6.11473000 38.57600000
216 1 22.34570000 6.80327000 39.51930000
217 3 23.63040000 5.13876000 39.02620000
218 3 22.90030000 6.02072000 37.57570000
219 3 21.76900000 6.20967000 40.23580000
220 3 21.58340000 7.28570000 38.88360000
221 1 14.08970000 41.14420000 42.54760000
222 2 14.96120000 40.28930000 42.69820000
223 2 14.30260000 42.44500000 42.64350000
224 2 12.80680000 40.90640000 42.38410000
225 1 13.11880000 43.17180000 42.58310000
226 1 12.11260000 42.05840000 42.15480000
227 3 13.30440000 0.22598600 41.80190000
228 3 12.78850000 43.61940000 43.55850000
229 3 11.79750000 42.19180000 41.11520000
230 3 11.17650000 41.99340000 42.77460000
231 1 19.17350000 31.48300000 8.10059000
232 2 19.32230000 32.65690000 7.92189000
233 2 20.10930000 30.59590000 8.34730000
234 2 18.00050000 30.94480000 8.30909000
235 1 19.67270000 29.28320000 8.42453000
236 1 18.13920000 29.56090000 8.45427000
237 3 19.95220000 29.04400000 9.40988000
238 3 20.06390000 28.57860000 7.71471000
239 3 17.57210000 29.20700000 9.32371000
240 3 17.64310000 29.09250000 7.53578000
241 1 29.91080000 29.42520000 31.30470000
242 2 29.13200000 29.77590000 30.45870000
243 2 30.75100000 28.41770000 31.24100000
244 2 29.95260000 29.97200000 32.53220000
245 1 31.35710000 28.15540000 32.49130000
246 1 30.61800000 29.08910000 33.45480000
247 3 32.41080000 28.36080000 32.60930000
248 3 31.11830000 27.13610000 32.77120000
249 3 31.28350000 29.71480000 33.92680000
250 3 29.89670000 28.58360000 34.11840000
251 1 40.88970000 20.24330000 31.15110000
252 2 40.94660000 21.02200000 32.08780000
253 2 39.91740000 19.34190000 30.87100000
254 2 41.90470000 20.18950000 30.22540000
255 1 40.37390000 18.48030000 29.84650000
256 1 41.61930000 19.24830000 29.22170000
257 3 39.52480000 18.37700000 29.07970000
258 3 40.74150000 17.51500000 30.25120000
259 3 41.31400000 19.75670000 28.33820000
260 3 42.40650000 18.50180000 29.05030000
261 1 26.36780000 38.43670000 28.12910000
262 2 25.19010000 38.66340000 27.76810000
263 2 27.13490000 37.39000000 27.78830000
264 2 26.98780000 39.13590000 29.09250000
265 1 28.17240000 37.22240000 28.69530000
266 1 28.22210000 38.55560000 29.40860000
267 3 29.15480000 36.88590000 28.28160000
268 3 27.83700000 36.55550000 29.40650000
269 3 29.07090000 39.14070000 29.09050000
270 3 28.44480000 38.52280000 30.50310000
271 1 26.36230000 24.92800000 41.73940000
272 2 25.63210000 25.18700000 42.64800000
273 2 27.13960000 25.74690000 41.12220000
274 2 26.46160000 23.64930000 41.25500000
275 1 27.88720000 25.00490000 40.18900000
276 1 27.56210000 23.53540000 40.39140000
277 3 28.96990000 25.12710000 40.42930000
278 3 27.68380000 25.33310000 39.14640000
279 3 28.46570000 23.10390000 40.85140000
280 3 27.21750000 23.08140000 39.47700000
281 1 31.19340000 34.89750000 29.58120000
282 2 30.97520000 36.00000000 30.10060000
283 2 32.36390000 34.33670000 29.54470000
284 2 30.38750000 34.15060000 28.75320000
285 1 32.38560000 33.06890000 28.93680000
286 1 30.95820000 32.99920000 28.38530000
287 3 32.62880000 32.16940000 29.56970000
288 3 32.97250000 33.05920000 28.03940000
289 3 30.43340000 32.20160000 28.82910000
290 3 31.17670000 32.87210000 27.30960000
291 1 21.20380000 43.56690000 30.28660000
292 2 21.68350000 43.04440000 29.25230000
293 2 20.23010000 42.98770000 31.03590000
294 2 21.66590000 0.89166400 30.95980000
295 1 19.90980000 43.75880000 32.12230000
296 1 21.17830000 0.88501200 32.28090000
297 3 19.64120000 43.23370000 33.10200000
298 3 19.09720000 0.70996300 31.74160000
299 3 21.89190000 0.26097000 32.87320000
300 3 21.04160000 1.90730000 32.68670000
301 1 26.16770000 26.19780000 19.16460000
302 2 26.84430000 25.58790000 18.36600000
303 2 25.19850000 27.02590000 18.75420000
304 2 26.10430000 26.07560000 20.47930000
305 1 24.33420000 27.32270000 19.84740000
306 1 25.18110000 26.90660000 21.06720000
307 3 23.37760000 26.81610000 19.83250000
308 3 24.06410000 28.33840000 20.05140000
309 3 24.60550000 26.39570000 21.82380000
310 3 25.67960000 27.74720000 21.41000000
311 1 15.35970000 5.39039000 12.72850000
312 2 16.24390000 5.37801000 11.84840000
313 2 14.14010000 4.93780000 12.57670000
314 2 15.49080000 5.85940000 13.99290000
315 1 13.47390000 4.81304000 13.78430000
316 1 14.24860000 5.89560000 14.63640000
317 3 13.74460000 3.78373000 14.10910000
318 3 12.42550000 4.84205000 13.69330000
319 3 14.35810000 5.71628000 15.69770000
320 3 13.79810000 6.88960000 14.56330000
321 1 30.66520000 28.01330000 8.55031000
322 2 30.75270000 29.22230000 8.86800000
323 2 31.52840000 27.02790000 8.86094000
324 2 29.68620000 27.55500000 7.80654000
325 1 31.18850000 25.78170000 8.26980000
326 1 29.77040000 26.11050000 7.67679000
327 3 31.06760000 25.04730000 9.03233000
328 3 32.02370000 25.43200000 7.56314000
329 3 29.01020000 25.80460000 8.36218000
330 3 29.55920000 25.61990000 6.68561000
331 1 18.34370000 40.21420000 17.55350000
332 2 18.05360000 39.36200000 18.40210000
333 2 17.53290000 40.80620000 16.69690000
334 2 19.54770000 40.69850000 17.32210000
335 1 18.20690000 41.74840000 15.91040000
336 1 19.67210000 41.49320000 16.15170000
337 3 17.80600000 42.69010000 16.22340000
338 3 17.88170000 41.69610000 14.80700000
339 3 20.21580000 42.40590000 16.45690000
340 3 20.15160000 40.94540000 15.30760000
341 1 2.34366000 37.20730000 18.93920000
342 2 2.82244000 37.92350000 18.08190000
343 2 1.49739000 36.28010000 18.69140000
344 2 2.76606000 37.16170000 20.21780000
345 1 1.17949000 35.49780000 19.90370000
346 1 2.26217000 35.98370000 20.85280000
347 3 1.24209000 34.42080000 19.67480000
348 3 0.13507300 35.67230000 20.23050000
349 3 3.17516000 35.41370000 20.96390000
350 3 1.85278000 36.26310000 21.89770000
351 1 6.33778000 36.42050000 16.09640000
352 2 7.20493000 37.18610000 15.77340000
353 2 5.18009000 36.16550000 15.51100000
354 2 6.54822000 35.64820000 17.19400000
355 1 4.57021000 35.07340000 16.08510000
356 1 5.27373000 35.09580000 17.48600000
357 3 4.82518000 34.18190000 15.42830000
358 3 3.45756000 35.22980000 16.27750000
359 3 5.46295000 34.08990000 17.84670000
360 3 4.79842000 35.66870000 18.28580000
361 1 3.03311000 27.23000000 28.68480000
362 2 2.68100000 28.15040000 27.89030000
363 2 3.99348000 27.34000000 29.60730000
364 2 2.59216000 25.86290000 28.63720000
365 1 4.15113000 26.14520000 30.33590000
366 1 3.48416000 25.09480000 29.41670000
367 3 3.43061000 26.21250000 31.18080000
368 3 5.15266000 25.97730000 30.64040000
369 3 3.05679000 24.26570000 29.93160000
370 3 4.21818000 24.70820000 28.88020000
371 1 3.54614000 31.98480000 32.04600000
372 2 2.78251000 32.90610000 31.93790000
373 2 3.31604000 30.79650000 31.46700000
374 2 4.69498000 31.97200000 32.58310000
375 1 4.29536000 29.85780000 31.94530000
376 1 5.41426000 30.80370000 32.28100000
377 3 4.66164000 29.10360000 31.21800000
378 3 3.92774000 29.38360000 32.81090000
379 3 6.03371000 30.96400000 31.35960000
380 3 6.19433000 30.33840000 32.97440000
381 1 22.78270000 18.22370000 23.35150000
382 2 23.47310000 17.63480000 22.61080000
383 2 22.91880000 18.19360000 24.65620000
384 2 21.90550000 19.15130000 23.05480000
385 1 21.81540000 18.90810000 25.23120000
386 1 21.40080000 19.87770000 24.13290000
387 3 22.20000000 19.46170000 26.09820000
388 3 21.09590000 18.15600000 25.47050000
389 3 21.80000000 20.89900000 23.96920000
390 3 20.32140000 19.87330000 24.11310000
391 1 13.68680000 1.06063000 28.64250000
392 2 14.34100000 0.57146800 29.56520000
393 2 12.53310000 1.79459000 28.78710000
394 2 13.97330000 1.10922000 27.31130000
395 1 11.92670000 2.02010000 27.58300000
396 1 13.11150000 1.92791000 26.57760000
397 3 11.52750000 3.04482000 27.66900000
398 3 11.15460000 1.33229000 27.42260000
399 3 13.42410000 2.98537000 26.45900000
400 3 12.80330000 1.60448000 25.56540000
401 1 42.32030000 40.14650000 41.46970000
402 2 41.42880000 39.60950000 42.08410000
403 2 42.78890000 41.35220000 41.74330000
404 2 42.91590000 39.73620000 40.38140000
405 1 43.81490000 41.72440000 40.91480000
406 1 0.42888400 40.43140000 40.17820000
407 3 0.88156000 42.24170000 41.53610000
408 3 43.43500000 42.31760000 40.14220000
409 3 1.24524000 39.74670000 40.58560000
410 3 0.59545300 40.58740000 39.12980000
411 1 35.05940000 11.53330000 35.31770000
412 2 34.18160000 12.27790000 34.79750000
413 2 35.62630000 10.49830000 34.83940000
414 2 35.57980000 11.81320000 36.55330000
415 1 36.70700000 10.13140000 35.58570000
416 1 36.52820000 10.82200000 36.93100000
417 3 37.64300000 10.45320000 35.20890000
418 3 36.77150000 9.09433000 35.72610000
419 3 37.48220000 11.24590000 37.32790000
420 3 36.06550000 10.08440000 37.67150000
421 1 32.20680000 22.47500000 31.73450000
422 2 32.10790000 21.40300000 32.29790000
423 2 31.61650000 23.58260000 32.00870000
424 2 32.96190000 22.64620000 30.68950000
425 1 31.99850000 24.60950000 31.13310000
426 1 33.11700000 24.01460000 30.25730000
427 3 32.53530000 25.31970000 31.65580000
428 3 31.09800000 24.95030000 30.69600000
429 3 34.10930000 24.35550000 30.62990000
430 3 33.06170000 24.02390000 29.19570000
431 1 22.58860000 8.92915000 33.67050000
432 2 21.78310000 9.38744000 32.87120000
433 2 23.70620000 8.34483000 33.34210000
434 2 22.44340000 8.93914000 35.01610000
435 1 24.45890000 7.98470000 34.48910000
436 1 23.42620000 8.09704000 35.59380000
437 3 25.36890000 8.54123000 34.57590000
438 3 24.77400000 6.96840000 34.27640000
439 3 23.91040000 8.59810000 36.43490000
440 3 22.96350000 7.09845000 35.92030000
441 1 20.86030000 36.34610000 23.41630000
442 2 20.58400000 35.35750000 24.04090000
443 2 19.93680000 37.13470000 22.83580000
444 2 22.09090000 36.89520000 23.32530000
445 1 20.61040000 38.13290000 22.07050000
446 1 21.95960000 38.21800000 22.69500000
447 3 20.01430000 38.98780000 21.87530000
448 3 20.73270000 37.79510000 21.07350000
449 3 21.72790000 39.04330000 23.43130000
450 3 22.76460000 38.61140000 21.99020000
451 1 27.99100000 23.82670000 29.24930000
452 2 27.16410000 24.44030000 29.90370000
453 2 27.90520000 23.61490000 27.94130000
454 2 29.13220000 23.31240000 29.61730000
455 1 29.06580000 22.96410000 27.36580000
456 1 29.80440000 22.58310000 28.62040000
457 3 29.66710000 23.62160000 26.76020000
458 3 28.76280000 22.10410000 26.78700000
459 3 30.86650000 22.77050000 28.61250000
460 3 29.70240000 21.52620000 28.89850000
461 1 9.03896000 22.74350000 4.17929000
462 2 8.40084000 22.79940000 5.23695000
463 2 9.01060000 21.69340000 3.40491000
464 2 9.66013000 23.73860000 3.54894000
465 1 9.79673000 21.83840000 2.21469000
466 1 10.36650000 23.16800000 2.45261000
467 3 9.38914000 21.84960000 1.24410000
468 3 10.55510000 21.08580000 2.23444000
469 3 10.15870000 23.72650000 1.57936000
470 3 11.46400000 23.14490000 2.53021000
471 1 37.21370000 2.18683000 38.71850000
472 2 36.90140000 0.99582800 39.01380000
473 2 38.45280000 2.58649000 38.60940000
474 2 36.37650000 3.17051000 38.45420000
475 1 38.53130000 3.91986000 38.20940000
476 1 37.05930000 4.38149000 38.30590000
477 3 38.84740000 3.91079000 37.19810000
478 3 39.10770000 4.59966000 38.92280000
479 3 36.86050000 4.96512000 37.49220000
480 3 36.86440000 5.06576000 39.16630000
481 1 10.60130000 33.71530000 11.54030000
482 2 9.78874000 34.66390000 11.41400000
483 2 10.42180000 32.59520000 12.13650000
484 2 11.83390000 33.64630000 10.98800000
485 1 11.49820000 31.69270000 12.10530000
486 1 12.50150000 32.40520000 11.21430000
487 3 11.29450000 30.69390000 11.67960000
488 3 11.77660000 31.49220000 13.12530000
489 3 12.61600000 31.99520000 10.25760000
490 3 13.46330000 32.65740000 11.64750000
491 1 8.88999000 6.85551000 10.07400000
492 2 7.82394000 6.80895000 9.51134000
493 2 9.94925000 7.30702000 9.47146000
494 2 9.19243000 6.59922000 11.33080000
495 1 11.02370000 7.50534000 10.46430000
496 1 10.60650000 6.53002000 11.51040000
497 3 11.03790000 8.54393000 10.77600000
498 3 11.94610000 7.29541000 10.02700000
499 3 10.90550000 6.87241000 12.48020000
500 3 10.98800000 5.54466000 11.32860000
501 1 37.20820000 4.98336000 9.38079000
502 2 38.33140000 4.64074000 9.15662000
503 2 36.16140000 4.20780000 9.28588000
504 2 36.86620000 6.19749000 9.50414000
505 1 34.97130000 4.96269000 9.20977000
506 1 35.43910000 6.31640000 9.70266000
507 3 34.14240000 4.50335000 9.73138000
508 3 34.69050000 5.23723000 8.22074000
509 3 35.19000000 6.58983000 10.80810000
510 3 34.96740000 7.12125000 9.08084000
511 1 15.26440000 15.40450000 23.53820000
512 2 15.05900000 15.38790000 24.74960000
513 2 16.43870000 15.45530000 22.95320000
514 2 14.33610000 15.59960000 22.67410000
515 1 16.28080000 15.59970000 21.52040000
516 1 14.73170000 15.39390000 21.35790000
517 3 16.84220000 14.86270000 20.92420000
518 3 16.59130000 16.65630000 21.24640000
519 3 14.62110000 14.35690000 20.89920000
520 3 14.29730000 16.09580000 20.67730000
521 1 24.81990000 0.34286200 31.15520000
522 2 24.40880000 43.64000000 32.25890000
523 2 25.07570000 1.67479000 30.95060000
524 2 24.81800000 43.36520000 29.95720000
525 1 25.32900000 1.94464000 29.61410000
526 1 24.89260000 0.57988400 28.95300000
527 3 26.42050000 2.11835000 29.53770000
528 3 24.83310000 2.82000000 29.17300000
529 3 25.44780000 0.35672000 28.08940000
530 3 23.85750000 0.62394600 28.71770000
531 1 10.53090000 33.55470000 35.42090000
532 2 10.63920000 33.05040000 34.27480000
533 2 11.25780000 34.45340000 35.77490000
534 2 9.48750000 33.27860000 36.25060000
535 1 10.68780000 35.20060000 36.83940000
536 1 9.52706000 34.23480000 37.27600000
537 3 10.41670000 36.23790000 36.49640000
538 3 11.41870000 35.31670000 37.65180000
539 3 8.56327000 34.72850000 37.37970000
540 3 9.61917000 33.73730000 38.23950000
541 1 20.26830000 31.01720000 37.05760000
542 2 21.39760000 30.54130000 37.24920000
543 2 19.65520000 32.00640000 37.65400000
544 2 19.45150000 30.55710000 36.04670000
545 1 18.32760000 32.23390000 37.16490000
546 1 18.38870000 31.41970000 35.88290000
547 3 18.20950000 33.30840000 37.03530000
548 3 17.46470000 31.85060000 37.76590000
549 3 18.58490000 32.05750000 35.05990000
550 3 17.50290000 30.86850000 35.58280000
551 1 40.12240000 42.58610000 17.59280000
552 2 39.22450000 42.98000000 16.79320000
553 2 41.37670000 42.83670000 17.45370000
554 2 39.88100000 41.92880000 18.68210000
555 1 42.18020000 42.34570000 18.54600000
556 1 41.13900000 41.71310000 19.44710000
557 3 42.66500000 43.19430000 18.95060000
558 3 43.00370000 41.61150000 18.29870000
559 3 41.27900000 42.05000000 20.46650000
560 3 41.28280000 40.59600000 19.57250000
561 1 15.62550000 40.31560000 32.47540000
562 2 15.56500000 39.08320000 32.60120000
563 2 14.97480000 41.12140000 31.53670000
564 2 16.42020000 41.09820000 33.15430000
565 1 15.38760000 42.44880000 31.58250000
566 1 16.57280000 42.33580000 32.56920000
567 3 14.52480000 43.05680000 31.86020000
568 3 15.75900000 42.68540000 30.61980000
569 3 16.60480000 43.20580000 33.33240000
570 3 17.49570000 42.40160000 32.02520000
571 1 12.78950000 27.41870000 40.68100000
572 2 13.36420000 27.75190000 41.74250000
573 2 13.29770000 26.50690000 39.86670000
574 2 11.62830000 27.91480000 40.23510000
575 1 12.52120000 26.39430000 38.70000000
576 1 11.43300000 27.46710000 38.88680000
577 3 12.05180000 25.43900000 38.60350000
578 3 13.02680000 26.70730000 37.83280000
579 3 10.47190000 26.93050000 38.83790000
580 3 11.54480000 28.20330000 38.06730000
581 1 2.48481000 11.46710000 40.05560000
582 2 2.27013000 12.47250000 39.38130000
583 2 3.46358000 11.33560000 40.99190000
584 2 1.96903000 10.29910000 39.75670000
585 1 3.52959000 9.99725000 41.44050000
586 1 2.54664000 9.34444000 40.60730000
587 3 3.13970000 10.05470000 42.45980000
588 3 4.53469000 9.63646000 41.40570000
589 3 1.84291000 9.04137000 41.31380000
590 3 3.05173000 8.56101000 40.01850000
591 1 26.54370000 39.34340000 22.26060000
592 2 27.25430000 39.43570000 21.27280000
593 2 26.91870000 39.59070000 23.46160000
594 2 25.43530000 38.69880000 22.29090000
595 1 26.16640000 38.85890000 24.40990000
596 1 24.90810000 38.74680000 23.55290000
597 3 25.99730000 39.33910000 25.37130000
598 3 26.65170000 37.88090000 24.63650000
599 3 24.34110000 39.56480000 23.82680000
600 3 24.21800000 37.95920000 23.69090000
601 1 32.03190000 33.44760000 21.48310000
602 2 32.05080000 32.27960000 21.84770000
603 2 32.29950000 33.84930000 20.27670000
604 2 31.74140000 34.49500000 22.11480000
605 1 31.78980000 35.14920000 19.90820000
606 1 31.79430000 35.69370000 21.38790000
607 3 30.69900000 35.06360000 19.61380000
608 3 32.39570000 35.58860000 19.09140000
609 3 30.96580000 36.36890000 21.55440000
610 3 32.62700000 36.35410000 21.58960000
611 1 36.49210000 38.42630000 2.94488000
612 2 36.80350000 37.41770000 2.31138000
613 2 36.03170000 39.52100000 2.31051000
614 2 36.76380000 38.79580000 4.24425000
615 1 36.21600000 40.63560000 3.20715000
616 1 36.45300000 40.08490000 4.56435000
617 3 35.39070000 41.37530000 3.24840000
618 3 37.09070000 41.16460000 2.92699000
619 3 35.56240000 40.28920000 5.13220000
620 3 37.37410000 40.54990000 4.97981000
621 1 27.26080000 19.55840000 28.25420000
622 2 28.36210000 19.10320000 27.87350000
623 2 26.14310000 18.94730000 28.39660000
624 2 27.07470000 20.84270000 28.41590000
625 1 25.03990000 19.85820000 28.65250000
626 1 25.80110000 21.14130000 28.90280000
627 3 24.60610000 19.43530000 29.56150000
628 3 24.34680000 19.95110000 27.80500000
629 3 25.71310000 21.52560000 29.94500000
630 3 25.52650000 21.98690000 28.31650000
631 1 26.04790000 29.57320000 15.24800000
632 2 25.87100000 30.76000000 15.36780000
633 2 25.92410000 28.65850000 16.10330000
634 2 26.42750000 29.02290000 14.09200000
635 1 26.06850000 27.41580000 15.39960000
636 1 26.88430000 27.72360000 14.26290000
637 3 25.11710000 27.07320000 15.06740000
638 3 26.57640000 26.68180000 15.98490000
639 3 26.65180000 26.99640000 13.55800000
640 3 27.99350000 27.81620000 14.38130000
641 1 7.71589000 3.35769000 21.98070000
642 2 8.69944000 3.83519000 21.45040000
643 2 6.44585000 3.54584000 21.60220000
644 2 7.68983000 2.63978000 23.12550000
645 1 5.49100000 3.03394000 22.51190000
646 1 6.34237000 2.19480000 23.42110000
647 3 4.75157000 2.39751000 22.03760000
648 3 5.03203000 3.89924000 23.06690000
649 3 6.40861000 1.16091000 22.99610000
650 3 6.13768000 2.25403000 24.54930000
651 1 43.43960000 31.79470000 21.55650000
652 2 42.38660000 31.68410000 20.98620000
653 2 0.15984900 30.91810000 22.39220000
654 2 0.68053300 32.79090000 21.38920000
655 1 1.27543000 31.34220000 23.04070000
656 1 1.79727000 32.53550000 22.15370000
657 3 2.10669000 30.64490000 23.27210000
658 3 1.03542000 31.70910000 24.03980000
659 3 2.58536000 32.08840000 21.53900000
660 3 2.13995000 33.37080000 22.73020000
661 1 32.10370000 41.95080000 38.75110000
662 2 31.29260000 41.86170000 39.66640000
663 2 33.38800000 41.48480000 38.89170000
664 2 31.94170000 42.51650000 37.51240000
665 1 34.17340000 41.98020000 37.82700000
666 1 33.07400000 42.40250000 36.70350000
667 3 34.83260000 41.19080000 37.46710000
668 3 34.78420000 42.86960000 38.00610000
669 3 33.11910000 41.47410000 36.04000000
670 3 33.37780000 43.37580000 36.18900000
671 1 16.23320000 22.73370000 30.97520000
672 2 15.27760000 22.82940000 31.77560000
673 2 16.99030000 21.65590000 30.78010000
674 2 16.67930000 23.67760000 30.17890000
675 1 17.83710000 21.71370000 29.70540000
676 1 17.83380000 23.23130000 29.47890000
677 3 17.32450000 21.09010000 28.99430000
678 3 18.80760000 21.24110000 29.90800000
679 3 17.97550000 23.51510000 28.46710000
680 3 18.72080000 23.65360000 29.91700000
681 1 14.42670000 24.95340000 18.53870000
682 2 14.02800000 24.29390000 19.49500000
683 2 15.51140000 25.65040000 18.47730000
684 2 13.84830000 25.05060000 17.40450000
685 1 15.80540000 26.16440000 17.18200000
686 1 14.50020000 25.97120000 16.56930000
687 3 16.54160000 25.50750000 16.70920000
688 3 16.08520000 27.18960000 17.15590000
689 3 14.40100000 25.61220000 15.56700000
690 3 13.93640000 26.87010000 16.57490000
691 1 17.22700000 29.63850000 16.02800000
692 2 18.00550000 28.73560000 16.28970000
693 2 16.00910000 29.45030000 15.54220000
694 2 17.49520000 30.89560000 15.97690000
695 1 15.30760000 30.64820000 15.32480000
696 1 16.54080000 31.65200000 15.25740000
697 3 14.59300000 30.83410000 16.11320000
698 3 14.66650000 30.59210000 14.49040000
699 3 16.26450000 32.60140000 15.69840000
700 3 16.82740000 31.74960000 14.23550000
701 1 25.71440000 11.70890000 33.81630000
702 2 26.35390000 10.67140000 34.05190000
703 2 24.39450000 11.73040000 33.90840000
704 2 26.20220000 12.87200000 33.55240000
705 1 23.91630000 13.03710000 33.72420000
706 1 25.15040000 13.70370000 33.10690000
707 3 23.60680000 13.31050000 34.72420000
708 3 23.00870000 12.95960000 33.11730000
709 3 25.29100000 14.72890000 33.51920000
710 3 25.07990000 13.79440000 32.02010000
711 1 26.24730000 14.38620000 8.83691000
712 2 26.02880000 15.51170000 9.32390000
713 2 25.93750000 13.93990000 7.65711000
714 2 26.78060000 13.34030000 9.51772000
715 1 26.49340000 12.66860000 7.35560000
716 1 26.47490000 12.10540000 8.79161000
717 3 27.54670000 12.92210000 7.02880000
718 3 26.09100000 12.05770000 6.57493000
719 3 27.22330000 11.38730000 8.77488000
720 3 25.53240000 11.64090000 9.12841000
721 1 36.39600000 19.68780000 40.48460000
722 2 35.83440000 19.15780000 41.39290000
723 2 36.71410000 19.12100000 39.23470000
724 2 36.76270000 20.94580000 40.53450000
725 1 37.43740000 20.06410000 38.51890000
726 1 37.06310000 21.40880000 39.22890000
727 3 37.24720000 20.02510000 37.43520000
728 3 38.45790000 19.79930000 38.73160000
729 3 36.27930000 21.80510000 38.62960000
730 3 37.83860000 22.10100000 39.30070000
731 1 34.34840000 12.29310000 30.72230000
732 2 35.55650000 12.19910000 31.08050000
733 2 33.52030000 13.34670000 30.89370000
734 2 33.71870000 11.43440000 29.91250000
735 1 32.32400000 13.16240000 30.23080000
736 1 32.37260000 11.82870000 29.63950000
737 3 32.16090000 13.90490000 29.41790000
738 3 31.36010000 13.37940000 30.77520000
739 3 32.13250000 11.82360000 28.53580000
740 3 31.73700000 11.26340000 30.28150000
741 1 23.35750000 10.61560000 6.43028000
742 2 24.07310000 10.61030000 5.46998000
743 2 22.34070000 9.74818000 6.63761000
744 2 23.47760000 11.36440000 7.50474000
745 1 21.81260000 9.84634000 7.92487000
746 1 22.61430000 10.95330000 8.54916000
747 3 21.83250000 8.91806000 8.47076000
748 3 20.75590000 10.08960000 7.96288000
749 3 23.09760000 10.66450000 9.49973000
750 3 22.07170000 11.76990000 8.85846000
751 1 39.34390000 31.18250000 2.92528000
752 2 39.69940000 30.90510000 1.78728000
753 2 38.27000000 30.56340000 3.43377000
754 2 39.77910000 32.06340000 3.71711000
755 1 37.92990000 31.16350000 4.65472000
756 1 39.12600000 32.05070000 5.00074000
757 3 37.68610000 30.37830000 5.39870000
758 3 37.04020000 31.71130000 4.40003000
759 3 39.75880000 31.61430000 5.75005000
760 3 38.66910000 32.99470000 5.24938000
761 1 34.94350000 8.40892000 25.92580000
762 2 35.17840000 8.32001000 27.14260000
763 2 35.64260000 7.81746000 25.00330000
764 2 33.87830000 8.98620000 25.37790000
765 1 35.07380000 8.10613000 23.70180000
766 1 33.77300000 8.90716000 23.98730000
767 3 34.96470000 7.16414000 23.22750000
768 3 35.76690000 8.64194000 23.07200000
769 3 32.78680000 8.41597000 23.76860000
770 3 33.75910000 9.89528000 23.52630000
771 1 26.84070000 28.77760000 42.16190000
772 2 25.74930000 28.70890000 41.63230000
773 2 27.96340000 28.61060000 41.52160000
774 2 27.11400000 28.96660000 43.43760000
775 1 29.09830000 28.57180000 42.35600000
776 1 28.43760000 28.45280000 43.72620000
777 3 29.54930000 29.60710000 42.23000000
778 3 29.85560000 27.87860000 42.14930000
779 3 28.84690000 29.06570000 0.86489700
780 3 28.44180000 27.38880000 0.26275500
781 1 40.65910000 37.97110000 1.42318000
782 2 41.63810000 37.81350000 2.14842000
783 2 39.79720000 39.04190000 1.45831000
784 2 40.11630000 37.06140000 0.56612400
785 1 38.90740000 39.10490000 0.33482500
786 1 38.96780000 37.57900000 43.66670000
787 3 39.33230000 39.59730000 43.12690000
788 3 37.93910000 39.52310000 0.61037200
789 3 39.11070000 37.38420000 42.63390000
790 3 38.19530000 36.98160000 0.42671900
791 1 5.34231000 33.59910000 40.38680000
792 2 4.84690000 32.44820000 40.46600000
793 2 5.04491000 34.58790000 41.15970000
794 2 6.31884000 33.91370000 39.55990000
795 1 6.11861000 35.56340000 41.09200000
796 1 6.70465000 35.29630000 39.70520000
797 3 6.90955000 35.43200000 41.74990000
798 3 5.88879000 36.63480000 41.18890000
799 3 7.83559000 35.42690000 39.62660000
800 3 6.18869000 35.80770000 38.99270000
801 1 28.93720000 35.90620000 24.02890000
802 2 29.34810000 36.84470000 23.30910000
803 2 28.35600000 35.98530000 25.18240000
804 2 29.01960000 34.66550000 23.63280000
805 1 27.82610000 34.75740000 25.54230000
806 1 28.68130000 33.77850000 24.65860000
807 3 26.77600000 34.70260000 25.37490000
808 3 27.98580000 34.60780000 26.61050000
809 3 28.05190000 32.93410000 24.43040000
810 3 29.52550000 33.32570000 25.19420000
811 1 13.20430000 1.92577000 10.36550000
812 2 13.67820000 1.32855000 11.28560000
813 2 13.60380000 3.07885000 10.08380000
814 2 12.16300000 1.59510000 9.66321000
815 1 12.76200000 3.71434000 9.15462000
816 1 11.99820000 2.53228000 8.62100000
817 3 13.28700000 4.29663000 8.29312000
818 3 12.11730000 4.47410000 9.70366000
819 3 12.36640000 2.12754000 7.69498000
820 3 10.98390000 2.87112000 8.46143000
821 1 40.85480000 19.90690000 43.37280000
822 2 41.20010000 18.77740000 42.96870000
823 2 39.57750000 20.32750000 43.54970000
824 2 41.69310000 20.91740000 43.72290000
825 1 39.56200000 21.65500000 0.27313700
826 1 41.02830000 21.90230000 0.70980200
827 3 38.85900000 21.69990000 1.10051000
828 3 39.27850000 22.41490000 43.27790000
829 3 41.12850000 21.84310000 1.79943000
830 3 41.33620000 22.90310000 0.49686500
831 1 39.94310000 10.13760000 43.26020000
832 2 40.21450000 8.93690000 42.97060000
833 2 40.35450000 10.56220000 0.72693800
834 2 39.39050000 11.05190000 42.60130000
835 1 40.07070000 11.94000000 0.94253200
836 1 39.47470000 12.27210000 43.28190000
837 3 41.06870000 12.45840000 1.07003000
838 3 39.44970000 12.02980000 1.74893000
839 3 39.92650000 13.14680000 42.87560000
840 3 38.44350000 12.56250000 43.49050000
841 1 38.43550000 6.32239000 27.79960000
842 2 38.54900000 7.14849000 28.69560000
843 2 38.69520000 6.64082000 26.58030000
844 2 38.11200000 4.99598000 27.89470000
845 1 38.32180000 5.59097000 25.74100000
846 1 38.20920000 4.35993000 26.68680000
847 3 39.08600000 5.45632000 25.06190000
848 3 37.42540000 5.93874000 25.23240000
849 3 39.07140000 3.69566000 26.77010000
850 3 37.26880000 3.71272000 26.58200000
851 1 1.57537000 18.63740000 40.05630000
852 2 0.74236900 19.50660000 39.84090000
853 2 1.33544000 17.35660000 40.18850000
854 2 2.86357000 18.82770000 40.24650000
855 1 2.37148000 16.67720000 40.83170000
856 1 3.54025000 17.61150000 40.55060000
857 3 2.51407000 15.60840000 40.58500000
858 3 2.18237000 16.66210000 41.89340000
859 3 4.06612000 17.19840000 39.69280000
860 3 4.30140000 17.73480000 41.34430000
861 1 12.86750000 28.22200000 9.43518000
862 2 12.43880000 29.33460000 9.66852000
863 2 12.08870000 27.29040000 8.96378000
864 2 14.07170000 27.79050000 9.58918000
865 1 12.75640000 26.10600000 8.77764000
866 1 14.19450000 26.48260000 9.07855000
867 3 12.47670000 25.50680000 7.89904000
868 3 12.35720000 25.50900000 9.64689000
869 3 14.85020000 26.41700000 8.18300000
870 3 14.60850000 25.91940000 9.84722000
871 1 30.65920000 26.30460000 27.72840000
872 2 31.28110000 25.22670000 27.93710000
873 2 30.76270000 27.17350000 26.70650000
874 2 29.73110000 26.69880000 28.57520000
875 1 29.80440000 28.20540000 26.77280000
876 1 29.00920000 27.69860000 27.98930000
877 3 29.03190000 28.08500000 25.92100000
878 3 30.18480000 29.23400000 26.81620000
879 3 27.97190000 27.49890000 27.83350000
880 3 28.95740000 28.53480000 28.63820000
881 1 33.98430000 9.50509000 9.56874000
882 2 34.19600000 9.01439000 10.69180000
883 2 32.91590000 9.28726000 8.85239000
884 2 34.73730000 10.38720000 8.94902000
885 1 32.98670000 10.08310000 7.66164000
886 1 34.01160000 10.99690000 7.89414000
887 3 32.03020000 10.55820000 7.46531000
888 3 33.35590000 9.57808000 6.86729000
889 3 33.60310000 11.91870000 8.37583000
890 3 34.71040000 11.09160000 7.06030000
891 1 3.22691000 30.56350000 35.98790000
892 2 3.47451000 30.59510000 34.80470000
893 2 3.90991000 31.19720000 37.00050000
894 2 2.24559000 29.92690000 36.48300000
895 1 3.30954000 30.90920000 38.23020000
896 1 2.49251000 29.63350000 37.83220000
897 3 2.53663000 31.72480000 38.49460000
898 3 4.00908000 30.83880000 39.12440000
899 3 1.55396000 29.50550000 38.32030000
900 3 2.96198000 28.66890000 37.85940000
901 1 29.37520000 41.48760000 8.37357000
902 2 30.40340000 42.15520000 8.11530000
903 2 28.60110000 41.08130000 7.47874000
904 2 28.96280000 41.16020000 9.53258000
905 1 27.44630000 40.57220000 7.97094000
906 1 27.63200000 40.57740000 9.42253000
907 3 27.32360000 39.64430000 7.50180000
908 3 26.60470000 41.21310000 7.60925000
909 3 27.70300000 39.55600000 9.85997000
910 3 26.80830000 41.11900000 9.99594000
911 1 0.37861800 9.22287000 36.06090000
912 2 43.58360000 8.17050000 36.58330000
913 2 1.65654000 9.40143000 35.78850000
914 2 43.41200000 10.31890000 35.99320000
915 1 1.92775000 10.77780000 35.60440000
916 1 0.65483700 11.31600000 36.14240000
917 3 2.09927000 11.05040000 34.54360000
918 3 2.81142000 11.11370000 36.05110000
919 3 0.39021900 12.20450000 35.61550000
920 3 0.64915200 11.70700000 37.14200000
921 1 6.71885000 25.17130000 14.58300000
922 2 7.16111000 25.69910000 15.59330000
923 2 5.57382000 24.47590000 14.48520000
924 2 7.38293000 25.12860000 13.48570000
925 1 5.31104000 24.01040000 13.20100000
926 1 6.44935000 24.70730000 12.44080000
927 3 4.22573000 24.38970000 12.95520000
928 3 5.40676000 22.90450000 13.17910000
929 3 6.04145000 25.58330000 11.85480000
930 3 6.98127000 24.02320000 11.73770000
931 1 10.92180000 18.54840000 25.97150000
932 2 10.12770000 18.31050000 26.82710000
933 2 10.71230000 19.50810000 25.03070000
934 2 11.92120000 17.77190000 25.65860000
935 1 11.61610000 19.34440000 24.00090000
936 1 12.59450000 18.37880000 24.54910000
937 3 12.01570000 20.29690000 23.73370000
938 3 11.12280000 19.01130000 23.06560000
939 3 13.46870000 18.92650000 24.88010000
940 3 12.94210000 17.65990000 23.80100000
941 1 6.79085000 19.03940000 3.41253000
942 2 6.40907000 19.29090000 4.60389000
943 2 7.42388000 17.94860000 2.98275000
944 2 6.59793000 19.79030000 2.37055000
945 1 7.55900000 17.89750000 1.55741000
946 1 7.08845000 19.33930000 1.15754000
947 3 6.84899000 17.26070000 1.06640000
948 3 8.64893000 17.73380000 1.39330000
949 3 6.31064000 19.47240000 0.43540600
950 3 7.89857000 20.00470000 0.98734700
951 1 30.33570000 21.94150000 23.90080000
952 2 31.48680000 22.36850000 24.05500000
953 2 29.68840000 21.90250000 22.75190000
954 2 29.60170000 21.21400000 24.78860000
955 1 28.38530000 21.28320000 22.79760000
956 1 28.41270000 20.70890000 24.20860000
957 3 28.20500000 20.49520000 22.10770000
958 3 27.65710000 22.07300000 22.72610000
959 3 28.45310000 19.58720000 24.24110000
960 3 27.47770000 20.98970000 24.81540000
961 1 32.84790000 22.80650000 11.76870000
962 2 31.83190000 23.47440000 11.88160000
963 2 34.08920000 23.18000000 11.86250000
964 2 32.83880000 21.51650000 11.49090000
965 1 34.98170000 22.13950000 11.70710000
966 1 34.12200000 20.94120000 11.69540000
967 3 35.78700000 22.19560000 12.48000000
968 3 35.28610000 22.28800000 10.65500000
969 3 34.26270000 20.33860000 12.59080000
970 3 34.36690000 20.26270000 10.86150000
971 1 43.71010000 21.17200000 16.83530000
972 2 1.07153000 21.57550000 17.35790000
973 2 43.01270000 20.12230000 17.27900000
974 2 43.05660000 21.69040000 15.80980000
975 1 41.77990000 20.00070000 16.65980000
976 1 42.05640000 20.80770000 15.36610000
977 3 40.98350000 20.45950000 17.16840000
978 3 41.58760000 18.97900000 16.40930000
979 3 41.18520000 21.30810000 14.95820000
980 3 42.48230000 20.23570000 14.52710000
981 1 38.32560000 38.50700000 17.19270000
982 2 37.14110000 38.51760000 17.18920000
983 2 39.14640000 39.44910000 16.62400000
984 2 39.15110000 37.78960000 18.01530000
985 1 40.49400000 39.08130000 16.70120000
986 1 40.49710000 37.93860000 17.72950000
987 3 41.18520000 39.93400000 16.89180000
988 3 40.80570000 38.76710000 15.70750000
989 3 41.10640000 38.31730000 18.56380000
990 3 41.05520000 37.14540000 17.26730000
991 1 28.96150000 15.20940000 31.54260000
992 2 29.40340000 15.31210000 32.70390000
993 2 27.71200000 15.09330000 31.18110000
994 2 29.70880000 15.20820000 30.44560000
995 1 27.57050000 15.28710000 29.81650000
996 1 28.96770000 15.22170000 29.21840000
997 3 27.12050000 16.24550000 29.48780000
998 3 27.02320000 14.55130000 29.35510000
999 3 29.16810000 16.06830000 28.62510000
1000 3 29.22870000 14.29070000 28.72990000
1001 1 17.43100000 29.30440000 23.80130000
1002 2 17.58190000 30.07240000 22.87160000
1003 2 18.40290000 29.00330000 24.61710000
1004 2 16.38610000 28.64100000 24.15020000
1005 1 18.17270000 27.77300000 25.23540000
1006 1 16.62830000 27.77940000 25.26560000
1007 3 18.71610000 27.59160000 26.09980000
1008 3 18.39710000 27.00140000 24.54980000
1009 3 16.40360000 28.33870000 26.19910000
1010 3 16.15960000 26.83870000 25.37700000
1011 1 33.33080000 8.92462000 15.49960000
1012 2 33.22840000 9.70173000 16.41560000
1013 2 32.69700000 7.80150000 15.32010000
1014 2 34.06510000 9.17041000 14.50300000
1015 1 33.28190000 7.03998000 14.29910000
1016 1 33.86820000 8.22551000 13.44270000
1017 3 32.44170000 6.65080000 13.80950000
1018 3 34.05100000 6.28081000 14.60230000
1019 3 33.10140000 8.64078000 12.79340000
1020 3 34.84030000 7.92504000 13.00610000
1021 1 4.40989000 13.02990000 20.31580000
1022 2 3.25869000 12.85410000 20.52870000
1023 2 5.40616000 13.05470000 21.14090000
1024 2 4.82948000 13.28650000 19.15170000
1025 1 6.67160000 13.20360000 20.47750000
1026 1 6.18738000 13.29350000 19.05470000
1027 3 7.37233000 12.42000000 20.69210000
1028 3 7.19169000 14.12730000 20.77890000
1029 3 6.47821000 12.53790000 18.35750000
1030 3 6.45565000 14.27630000 18.65870000
1031 1 22.72750000 41.21120000 11.77690000
1032 2 22.63210000 40.04500000 11.51020000
1033 2 23.21930000 41.62930000 12.90870000
1034 2 22.33870000 42.33280000 11.06450000
1035 1 22.89410000 43.00810000 13.13170000
1036 1 22.68130000 43.52330000 11.72010000
1037 3 23.57880000 43.55910000 13.69540000
1038 3 22.04500000 43.08700000 13.80520000
1039 3 23.62960000 0.27054600 11.38260000
1040 3 21.95910000 0.61031000 11.61550000
1041 1 42.85610000 25.81640000 35.09520000
1042 2 42.78540000 25.19690000 34.01970000
1043 2 41.85410000 25.89390000 35.90300000
1044 2 0.17322000 26.41870000 35.64930000
1045 1 42.25310000 26.27080000 37.18050000
1046 1 43.62360000 27.02120000 36.92960000
1047 3 42.52010000 25.36890000 37.57650000
1048 3 41.50020000 26.82710000 37.75250000
1049 3 0.73234500 26.70680000 37.64560000
1050 3 43.50630000 28.09480000 36.96830000
1051 1 34.50980000 12.34480000 3.23688000
1052 2 33.84950000 11.53910000 3.95583000
1053 2 34.99100000 13.49120000 3.70438000
1054 2 34.92570000 12.05930000 1.96267000
1055 1 35.64000000 14.10640000 2.64957000
1056 1 35.78620000 13.05430000 1.59907000
1057 3 36.59630000 14.41450000 3.15321000
1058 3 35.36620000 15.08580000 2.27433000
1059 3 36.86840000 12.78370000 1.60850000
1060 3 35.43640000 13.45150000 0.59942300
1061 1 4.54723000 21.95900000 2.09287000
1062 2 4.28463000 21.29670000 1.15798000
1063 2 4.92581000 23.22290000 2.06922000
1064 2 4.30474000 21.61820000 3.38456000
1065 1 4.80505000 23.79490000 3.33922000
1066 1 4.62262000 22.60690000 4.32547000
1067 3 4.03448000 24.58870000 3.38666000
1068 3 5.69251000 24.32850000 3.52680000
1069 3 3.84872000 22.80950000 5.02922000
1070 3 5.50431000 22.36110000 4.90760000
1071 1 34.78280000 30.93270000 25.73790000
1072 2 34.07310000 31.94270000 25.79830000
1073 2 34.39540000 29.72510000 25.45150000
1074 2 36.11790000 30.88900000 25.90360000
1075 1 35.45570000 28.76570000 25.36070000
1076 1 36.65220000 29.51310000 25.86830000
1077 3 35.44770000 28.48040000 24.30050000
1078 3 35.33870000 27.84660000 25.97010000
1079 3 37.65790000 29.39610000 25.38890000
1080 3 36.81000000 29.12640000 26.87010000
1081 1 14.72710000 8.75140000 41.23880000
1082 2 14.59380000 9.21359000 40.13770000
1083 2 15.79830000 8.08096000 41.65760000
1084 2 13.74420000 8.60180000 42.06360000
1085 1 15.58910000 7.59455000 42.97680000
1086 1 14.06120000 7.84081000 43.19050000
1087 3 16.12680000 8.09507000 43.74780000
1088 3 15.65510000 6.51174000 43.12470000
1089 3 13.99600000 8.19305000 0.51687300
1090 3 13.48160000 6.92233000 43.26690000
1091 1 2.78167000 15.65590000 5.87705000
1092 2 2.58708000 15.01090000 6.87097000
1093 2 1.99689000 16.42150000 5.30127000
1094 2 3.92360000 15.58830000 5.23020000
1095 1 2.63517000 17.08430000 4.31188000
1096 1 3.89246000 16.34800000 4.07731000
1097 3 2.88938000 18.07200000 4.70091000
1098 3 2.04808000 17.16830000 3.41329000
1099 3 4.81405000 17.05110000 3.89943000
1100 3 3.82542000 15.80440000 3.13665000
1101 1 31.16590000 20.33450000 42.45090000
1102 2 30.83360000 19.42650000 43.21280000
1103 2 30.43670000 21.14060000 41.73270000
1104 2 32.44210000 20.68650000 42.19580000
1105 1 31.16710000 22.05110000 40.96460000
1106 1 32.54710000 21.92730000 41.59860000
1107 3 30.79130000 23.08700000 41.03400000
1108 3 31.25890000 21.71560000 39.92780000
1109 3 32.76920000 22.75680000 42.22550000
1110 3 33.32160000 21.96340000 40.81240000
1111 1 0.74214300 6.48260000 5.93433000
1112 2 0.65266300 6.58152000 7.15983000
1113 2 43.44790000 6.68976000 5.05338000
1114 2 1.88043000 6.15196000 5.25335000
1115 1 43.86350000 6.52365000 3.66546000
1116 1 1.63722000 6.46380000 3.86625000
1117 3 43.45560000 7.39010000 3.09976000
1118 3 43.41480000 5.64144000 3.21999000
1119 3 2.08226000 7.45657000 3.60694000
1120 3 2.07662000 5.74477000 3.13175000
1121 1 30.32800000 28.39490000 36.96110000
1122 2 31.15290000 27.79500000 36.28050000
1123 2 29.73620000 29.53480000 36.55780000
1124 2 29.99360000 28.26290000 38.22690000
1125 1 29.00020000 30.29270000 37.46880000
1126 1 29.28110000 29.45750000 38.76760000
1127 3 27.88610000 30.16740000 37.22880000
1128 3 29.23080000 31.33460000 37.49010000
1129 3 28.39020000 29.24920000 39.31330000
1130 3 29.92200000 30.05400000 39.47400000
1131 1 25.13210000 9.94031000 22.04550000
1132 2 24.25070000 9.96003000 22.94790000
1133 2 26.45440000 9.61714000 22.24800000
1134 2 24.93000000 10.34100000 20.80140000
1135 1 27.21720000 9.68454000 21.05470000
1136 1 26.19350000 10.40440000 20.15030000
1137 3 27.53820000 8.70926000 20.60960000
1138 3 28.07310000 10.22520000 21.18390000
1139 3 26.14850000 10.04220000 19.09340000
1140 3 26.46870000 11.45910000 20.13260000
1141 1 15.72600000 35.24460000 38.18860000
1142 2 16.31600000 35.93850000 39.01070000
1143 2 16.27970000 34.25910000 37.56550000
1144 2 14.52930000 35.33010000 37.96140000
1145 1 15.39880000 33.65410000 36.60580000
1146 1 14.18600000 34.57200000 36.85270000
1147 3 14.99770000 32.67400000 36.79250000
1148 3 15.80240000 33.89040000 35.61230000
1149 3 13.31490000 34.08270000 37.00580000
1150 3 14.08980000 35.25760000 35.97070000
1151 1 15.28840000 0.54541900 39.13030000
1152 2 15.25590000 43.19650000 39.85450000
1153 2 14.30750000 1.44049000 38.96020000
1154 2 16.37340000 0.91902100 38.27570000
1155 1 14.72380000 2.44001000 38.07550000
1156 1 15.87240000 1.84962000 37.29390000
1157 3 15.18130000 3.28471000 38.60080000
1158 3 13.84500000 2.70339000 37.51180000
1159 3 16.59210000 2.54407000 37.01020000
1160 3 15.48450000 1.50312000 36.35530000
1161 1 36.83170000 31.28270000 13.62410000
1162 2 37.68440000 31.64850000 12.83900000
1163 2 36.56980000 31.96120000 14.76120000
1164 2 35.94890000 30.31360000 13.47560000
1165 1 35.34200000 31.49830000 15.26600000
1166 1 35.06910000 30.26530000 14.55820000
1167 3 34.55270000 32.19620000 15.01690000
1168 3 35.39820000 31.40120000 16.37100000
1169 3 34.03600000 30.14840000 14.23470000
1170 3 35.28160000 29.49080000 15.30640000
1171 1 27.23450000 40.80110000 35.36910000
1172 2 28.37500000 40.39350000 35.62120000
1173 2 26.64990000 40.57950000 34.26180000
1174 2 26.48200000 41.58730000 36.12240000
1175 1 25.35570000 41.15900000 34.11050000
1176 1 25.37440000 42.00750000 35.33560000
1177 3 24.68300000 40.28570000 34.05170000
1178 3 25.27550000 41.70980000 33.14230000
1179 3 24.42280000 41.87450000 35.92670000
1180 3 25.39620000 42.98280000 34.97950000
1181 1 21.99690000 16.11230000 15.90950000
1182 2 21.05750000 15.79790000 15.16250000
1183 2 22.75490000 15.26730000 16.66350000
1184 2 22.49270000 17.29020000 16.07470000
1185 1 23.72590000 15.88510000 17.43830000
1186 1 23.66980000 17.31220000 16.83730000
1187 3 24.66080000 15.33790000 17.52050000
1188 3 23.25310000 15.93310000 18.47190000
1189 3 24.50870000 17.48530000 16.12790000
1190 3 23.67160000 18.05290000 17.56740000
1191 1 19.62210000 7.36308000 6.41286000
1192 2 18.59420000 7.85212000 5.98851000
1193 2 20.61360000 7.10184000 5.63583000
1194 2 19.93600000 7.21496000 7.71353000
1195 1 21.70930000 6.65987000 6.37999000
1196 1 21.07410000 6.42644000 7.80750000
1197 3 22.57040000 7.35317000 6.39306000
1198 3 22.14120000 5.75204000 5.99065000
1199 3 21.71020000 6.76760000 8.63573000
1200 3 20.92340000 5.39646000 7.97454000
1201 1 13.50300000 18.99960000 2.44166000
1202 2 14.31760000 19.87930000 2.09837000
1203 2 12.30790000 18.89950000 1.83220000
1204 2 13.61560000 18.18210000 3.37073000
1205 1 11.50620000 17.92840000 2.48841000
1206 1 12.64220000 17.15910000 3.28729000
1207 3 10.95120000 17.27040000 1.72568000
1208 3 10.86550000 18.41380000 3.21461000
1209 3 12.96890000 16.41620000 2.69179000
1210 3 12.41280000 16.80790000 4.24193000
1211 1 29.37470000 30.22340000 22.74340000
1212 2 28.34060000 30.19530000 22.04200000
1213 2 30.26560000 29.26650000 22.70630000
1214 2 29.82180000 31.10480000 23.57860000
1215 1 31.37510000 29.49660000 23.47170000
1216 1 30.99490000 30.75640000 24.16050000
1217 3 32.18780000 29.72650000 22.76420000
1218 3 31.83720000 28.64490000 24.00680000
1219 3 31.78270000 31.46940000 23.96380000
1220 3 31.00620000 30.54930000 25.20510000
1221 1 34.36400000 22.88110000 15.68150000
1222 2 35.35180000 22.21030000 15.32950000
1223 2 34.24570000 24.17540000 15.74800000
1224 2 33.20060000 22.36590000 15.87770000
1225 1 32.95850000 24.57560000 16.20380000
1226 1 32.24820000 23.26390000 16.15740000
1227 3 32.45970000 25.16390000 15.47470000
1228 3 33.01190000 24.86550000 17.26630000
1229 3 31.43190000 23.29680000 15.48710000
1230 3 31.88080000 22.95450000 17.16740000
1231 1 11.17500000 2.37856000 40.27440000
1232 2 11.34330000 1.17910000 40.42970000
1233 2 11.44250000 3.32640000 41.13700000
1234 2 10.77400000 2.93753000 39.14560000
1235 1 11.18660000 4.61193000 40.68790000
1236 1 10.97100000 4.37734000 39.15930000
1237 3 11.91980000 5.36215000 40.97180000
1238 3 10.25760000 4.97391000 41.16030000
1239 3 11.86990000 4.67234000 38.64770000
1240 3 10.09750000 4.89464000 38.73660000
1241 1 14.35430000 35.95050000 12.72990000
1242 2 14.80230000 35.92040000 11.61440000
1243 2 13.99490000 36.93060000 13.41130000
1244 2 14.26330000 34.88770000 13.43140000
1245 1 13.83860000 36.53810000 14.73650000
1246 1 13.72990000 35.08380000 14.74300000
1247 3 12.88700000 36.87350000 15.08380000
1248 3 14.69920000 36.94780000 15.22770000
1249 3 12.73820000 34.69340000 14.70440000
1250 3 14.03830000 34.48350000 15.57720000
1251 1 34.67960000 17.23040000 8.42359000
1252 2 33.96020000 18.01750000 8.96910000
1253 2 34.61400000 15.86280000 8.47229000
1254 2 35.64640000 17.56350000 7.64300000
1255 1 35.68470000 15.33720000 7.85354000
1256 1 36.31570000 16.43350000 7.07860000
1257 3 35.46230000 14.61170000 7.08498000
1258 3 36.40990000 14.87120000 8.56032000
1259 3 36.30070000 16.43420000 6.03478000
1260 3 37.39250000 16.56600000 7.38527000
1261 1 5.32998000 18.53730000 12.99400000
1262 2 4.95952000 19.67740000 12.88360000
1263 2 6.29303000 18.14660000 13.85290000
1264 2 4.95483000 17.51850000 12.22450000
1265 1 6.46809000 16.74160000 13.78610000
1266 1 5.38095000 16.24510000 12.85610000
1267 3 6.28263000 16.44400000 14.79530000
1268 3 7.47106000 16.40730000 13.50770000
1269 3 4.61330000 15.81100000 13.48570000
1270 3 5.82702000 15.51280000 12.15770000
1271 1 12.69320000 23.62440000 42.42110000
1272 2 12.17540000 24.58840000 41.91800000
1273 2 12.09540000 22.73940000 43.22290000
1274 2 13.99720000 23.24170000 42.32240000
1275 1 12.87910000 21.65940000 43.58970000
1276 1 14.18200000 21.96810000 42.87230000
1277 3 12.37230000 20.74260000 43.19950000
1278 3 12.74650000 21.74240000 0.91570600
1279 3 14.49870000 21.22860000 42.12060000
1280 3 14.99470000 21.94780000 43.57140000
1281 1 38.33280000 11.35990000 29.43010000
1282 2 38.87850000 11.59960000 30.47710000
1283 2 37.86600000 10.21530000 29.01020000
1284 2 38.25250000 12.22910000 28.46720000
1285 1 37.19010000 10.32190000 27.81530000
1286 1 37.69860000 11.62960000 27.33040000
1287 3 36.13460000 10.31630000 27.95840000
1288 3 37.44610000 9.54172000 27.06840000
1289 3 36.89380000 12.19960000 26.87360000
1290 3 38.50530000 11.52950000 26.60770000
1291 1 4.28802000 1.81697000 31.35290000
1292 2 3.60396000 1.26133000 30.56030000
1293 2 3.85569000 2.43588000 32.48420000
1294 2 5.60887000 1.95275000 31.27370000
1295 1 4.91023000 2.79675000 33.31490000
1296 1 6.05110000 2.69136000 32.34250000
1297 3 5.01179000 1.91686000 34.02670000
1298 3 4.93342000 3.77539000 33.80380000
1299 3 6.98970000 2.25018000 32.73460000
1300 3 6.13893000 3.72378000 32.03110000
1301 1 32.91860000 2.65319000 43.48340000
1302 2 33.74660000 1.77363000 43.64420000
1303 2 31.74540000 2.62700000 42.86240000
1304 2 33.02660000 3.83585000 0.29709500
1305 1 31.03400000 3.82841000 42.98680000
1306 1 32.18450000 4.72104000 43.40320000
1307 3 30.37340000 4.03880000 0.14914400
1308 3 30.39660000 4.17815000 42.17980000
1309 3 31.93700000 5.50850000 0.34574900
1310 3 32.57140000 5.26013000 42.55070000
1311 1 7.14136000 41.56930000 12.98980000
1312 2 7.87885000 41.12030000 12.13970000
1313 2 6.35577000 42.55480000 12.79200000
1314 2 6.96417000 41.08910000 14.20620000
1315 1 5.49016000 42.79940000 13.90870000
1316 1 6.01530000 41.86080000 14.98110000
1317 3 4.47718000 42.51970000 13.59390000
1318 3 5.48297000 0.10871800 14.19600000
1319 3 5.17349000 41.20900000 15.30510000
1320 3 6.50638000 42.35560000 15.84820000
1321 1 36.03600000 34.55400000 10.52590000
1322 2 37.11350000 35.12650000 10.38290000
1323 2 35.86660000 33.45730000 11.21060000
1324 2 34.88140000 35.00190000 10.10300000
1325 1 34.53720000 32.98300000 11.17540000
1326 1 33.87980000 34.02310000 10.24310000
1327 3 34.04840000 33.04350000 12.22290000
1328 3 34.64430000 31.95370000 10.78550000
1329 3 32.97790000 34.59630000 10.63130000
1330 3 33.60880000 33.49310000 9.28607000
1331 1 40.86240000 17.89620000 7.58258000
1332 2 39.66790000 17.78900000 7.34704000
1333 2 41.42070000 18.56050000 8.54405000
1334 2 41.81430000 17.27900000 6.82627000
1335 1 42.82990000 18.36850000 8.40895000
1336 1 43.07680000 17.30900000 7.46312000
1337 3 43.38810000 18.31530000 9.35934000
1338 3 43.27580000 19.24310000 7.92629000
1339 3 43.38390000 16.40090000 8.00988000
1340 3 0.26197600 17.29170000 6.76387000
1341 1 15.04410000 27.44980000 31.95680000
1342 2 15.85530000 27.67510000 32.83550000
1343 2 15.35750000 27.05000000 30.73060000
1344 2 13.71970000 27.61640000 32.05950000
1345 1 14.19230000 26.75990000 29.98680000
1346 1 13.06330000 27.42450000 30.80250000
1347 3 14.07590000 25.62290000 29.99730000
1348 3 14.21190000 27.04820000 28.95990000
1349 3 12.19780000 26.74580000 30.95620000
1350 3 12.52670000 28.30970000 30.36730000
1351 1 3.12393000 18.56950000 0.32442300
1352 2 3.94700000 17.68480000 0.36957400
1353 2 3.00924000 19.51050000 43.07500000
1354 2 2.17279000 18.84770000 1.23285000
1355 1 1.84673000 20.24190000 43.26100000
1356 1 1.49177000 20.09390000 1.08616000
1357 3 1.01963000 19.75490000 42.79190000
1358 3 1.90363000 21.28730000 42.94730000
1359 3 0.44768600 20.00210000 1.31292000
1360 3 1.84696000 20.84790000 1.80371000
1361 1 22.31710000 30.61260000 22.26230000
1362 2 23.18680000 29.89630000 21.79140000
1363 2 21.52920000 31.39930000 21.56350000
1364 2 22.07230000 30.78330000 23.49680000
1365 1 20.76800000 32.29230000 22.42070000
1366 1 20.94880000 31.61420000 23.78480000
1367 3 19.78950000 32.52690000 22.04330000
1368 3 21.44980000 33.18520000 22.31850000
1369 3 20.09900000 30.97610000 23.99560000
1370 3 21.05360000 32.26990000 24.63770000
1371 1 4.74356000 35.33860000 11.49340000
1372 2 3.60286000 35.75120000 11.23990000
1373 2 5.47687000 35.88270000 12.43370000
1374 2 5.33540000 34.34310000 11.00220000
1375 1 6.69573000 35.24270000 12.57990000
1376 1 6.44096000 33.95320000 11.81270000
1377 3 6.79083000 35.04090000 13.65280000
1378 3 7.57505000 35.84930000 12.19740000
1379 3 6.05488000 33.18110000 12.53490000
1380 3 7.27452000 33.46120000 11.41010000
1381 1 31.41790000 38.16310000 36.81070000
1382 2 32.18090000 39.14190000 36.75060000
1383 2 31.75960000 36.94070000 37.07230000
1384 2 30.12310000 38.28770000 36.64370000
1385 1 30.59550000 36.08020000 36.94000000
1386 1 29.49320000 37.05460000 36.68670000
1387 3 30.25720000 35.61090000 37.88540000
1388 3 30.73380000 35.31820000 36.08840000
1389 3 28.84110000 37.06330000 37.59950000
1390 3 28.94620000 36.88810000 35.79760000
1391 1 3.81677000 42.57170000 26.90120000
1392 2 3.92493000 42.28820000 28.06380000
1393 2 2.96159000 41.98650000 26.02780000
1394 2 4.43667000 43.60010000 26.28440000
1395 1 3.32228000 42.29210000 24.71990000
1396 1 4.22602000 43.56990000 24.86980000
1397 3 2.54192000 42.33190000 23.91110000
1398 3 3.98918000 41.52270000 24.34610000
1399 3 3.59888000 0.68951000 24.45920000
1400 3 5.16602000 43.43630000 24.41870000
1401 1 33.83470000 33.93450000 39.93990000
1402 2 33.37580000 33.02360000 40.61530000
1403 2 34.18980000 33.78790000 38.75020000
1404 2 33.95530000 35.18190000 40.33290000
1405 1 34.71790000 34.98640000 38.17530000
1406 1 34.50630000 35.94680000 39.25310000
1407 3 34.14680000 35.12320000 37.29330000
1408 3 35.79250000 34.82660000 37.85680000
1409 3 33.90390000 36.80530000 38.92560000
1410 3 35.46190000 36.43000000 39.49560000
1411 1 23.87280000 42.64200000 8.65774000
1412 2 24.62570000 41.94290000 9.24512000
1413 2 23.80250000 0.28988000 8.76858000
1414 2 22.99250000 42.26710000 7.79438000
1415 1 22.84060000 0.80456900 7.94791000
1416 1 22.56510000 43.34730000 7.01128000
1417 3 23.14180000 1.56832000 7.30191000
1418 3 21.84930000 1.01718000 8.43728000
1419 3 23.18630000 43.30000000 6.12332000
1420 3 21.53390000 43.30090000 6.54250000
1421 1 31.34910000 35.56770000 13.15610000
1422 2 30.92320000 35.63970000 12.00700000
1423 2 31.04390000 36.29280000 14.27170000
1424 2 32.34240000 34.70560000 13.54510000
1425 1 31.86540000 35.93850000 15.38710000
1426 1 32.58880000 34.64440000 14.92090000
1427 3 31.31440000 36.00830000 16.28860000
1428 3 32.63950000 36.73340000 15.48790000
1429 3 32.19500000 33.67490000 15.34870000
1430 3 33.62920000 34.60250000 15.21910000
1431 1 16.55460000 23.08500000 10.66470000
1432 2 15.97880000 24.11810000 10.41940000
1433 2 16.94980000 22.74390000 11.78950000
1434 2 16.74130000 22.01880000 9.82586000
1435 1 17.20940000 21.36320000 11.93790000
1436 1 17.44200000 20.96410000 10.47340000
1437 3 16.30860000 20.90190000 12.33560000
1438 3 18.05730000 21.00890000 12.62340000
1439 3 16.93720000 19.98860000 10.30190000
1440 3 18.48810000 20.83350000 10.26450000
1441 1 15.44890000 0.48135400 14.09080000
1442 2 15.01950000 0.87911500 15.20230000
1443 2 15.64480000 42.90900000 13.79870000
1444 2 15.96080000 1.21953000 13.08780000
1445 1 16.04010000 42.76990000 12.40640000
1446 1 16.58100000 0.46409800 12.03380000
1447 3 15.25880000 42.48570000 11.79790000
1448 3 16.82240000 42.08200000 12.23830000
1449 3 16.35130000 0.66478600 10.98680000
1450 3 17.66560000 0.55145900 12.26440000
1451 1 13.34730000 18.74320000 20.97940000
1452 2 12.30900000 18.07140000 21.04460000
1453 2 14.23780000 18.96480000 21.88970000
1454 2 13.62610000 19.45730000 19.91500000
1455 1 15.15740000 19.96190000 21.59050000
1456 1 14.84340000 20.16660000 20.15160000
1457 3 16.22410000 19.58210000 21.61560000
1458 3 15.01950000 20.88930000 22.18950000
1459 3 15.63410000 19.71780000 19.58120000
1460 3 14.84610000 21.17590000 19.67250000
1461 1 42.29140000 9.40216000 12.56190000
1462 2 41.79780000 8.85375000 13.49990000
1463 2 42.46330000 8.89606000 11.33200000
1464 2 43.02600000 10.57480000 12.53610000
1465 1 42.99200000 9.85595000 10.43000000
1466 1 43.59850000 10.88590000 11.35630000
1467 3 42.29560000 10.35760000 9.76377000
1468 3 43.73190000 9.41233000 9.73680000
1469 3 43.24580000 11.88790000 11.04820000
1470 3 1.03306000 10.88660000 11.47950000
1471 1 2.19762000 21.86970000 12.17350000
1472 2 2.27908000 22.91550000 12.84580000
1473 2 1.65563000 20.73810000 12.49570000
1474 2 2.66600000 21.83950000 10.93960000
1475 1 1.86617000 19.72140000 11.57990000
1476 1 2.48917000 20.50620000 10.44230000
1477 3 1.10101000 19.06320000 11.25820000
1478 3 2.60839000 19.16780000 12.20430000
1479 3 1.86030000 20.56050000 9.53054000
1480 3 3.36224000 20.03750000 10.08860000
1481 1 3.72076000 42.99280000 0.92371700
1482 2 4.84246000 42.64460000 1.01306000
1483 2 3.06153000 43.65390000 1.88752000
1484 2 2.90750000 43.00900000 43.51540000
1485 1 1.81927000 0.45786000 1.41282000
1486 1 1.58015000 43.42240000 0.16932100
1487 3 1.94192000 1.49029000 1.10463000
1488 3 1.04421000 0.36406600 2.18148000
1489 3 1.29578000 0.51539600 43.22560000
1490 3 0.93226200 42.54280000 43.93150000
1491 1 10.14980000 34.93400000 4.53587000
1492 2 9.71421000 35.74160000 5.27311000
1493 2 10.60840000 33.77250000 4.95531000
1494 2 10.21120000 35.02440000 3.17120000
1495 1 11.23550000 33.19060000 3.88750000
1496 1 10.91760000 33.96380000 2.65502000
1497 3 10.99120000 32.14590000 3.76761000
1498 3 12.23940000 33.09600000 4.18567000
1499 3 10.35270000 33.38500000 1.89474000
1500 3 11.78120000 34.25100000 2.05397000
1501 1 38.08810000 42.49140000 27.34750000
1502 2 38.04660000 41.55050000 26.53060000
1503 2 37.14010000 42.77200000 28.19010000
1504 2 39.11250000 43.31800000 27.59070000
1505 1 37.45920000 0.21338500 28.99580000
1506 1 38.93570000 0.43368800 28.74660000
1507 3 37.12840000 0.14922400 30.02850000
1508 3 37.01520000 1.09777000 28.57300000
1509 3 39.59240000 0.18504100 29.49100000
1510 3 39.06680000 1.47421000 28.50160000
1511 1 2.51875000 30.03140000 41.61170000
1512 2 1.55326000 30.52990000 41.09680000
1513 2 3.48024000 29.32720000 40.93560000
1514 2 2.81736000 30.12100000 42.90900000
1515 1 4.61485000 29.14530000 41.72780000
1516 1 3.98096000 29.38280000 43.13390000
1517 3 5.34713000 29.88770000 41.41330000
1518 3 5.04530000 28.14750000 41.54520000
1519 3 4.66610000 29.84710000 43.81830000
1520 3 3.76233000 28.44680000 43.59020000
1521 1 35.56700000 21.39800000 34.95560000
1522 2 35.40710000 22.05930000 36.01840000
1523 2 36.59340000 20.71730000 34.60330000
1524 2 34.67110000 21.28220000 33.98220000
1525 1 36.52130000 20.18710000 33.34790000
1526 1 35.17170000 20.63730000 32.85580000
1527 3 36.59260000 19.14100000 33.37730000
1528 3 37.36670000 20.41080000 32.63860000
1529 3 34.58010000 19.74440000 32.63780000
1530 3 35.15960000 21.17580000 31.93460000
1531 1 13.20450000 14.79800000 18.01920000
1532 2 12.28410000 15.26180000 18.68670000
1533 2 13.55770000 15.28030000 16.82390000
1534 2 14.09730000 13.90400000 18.45360000
1535 1 14.76540000 14.84150000 16.37650000
1536 1 15.15440000 13.78550000 17.49120000
1537 3 15.53640000 15.60610000 16.40070000
1538 3 14.76780000 14.49410000 15.33800000
1539 3 16.10640000 13.99720000 17.92720000
1540 3 15.25220000 12.84100000 16.98130000
1541 1 25.23260000 37.64930000 37.09230000
1542 2 25.04750000 38.05940000 35.96860000
1543 2 26.23140000 36.87830000 37.53100000
1544 2 24.40430000 37.83070000 38.12390000
1545 1 26.11910000 36.53480000 38.98030000
1546 1 24.67250000 36.89930000 39.22170000
1547 3 26.77130000 37.20090000 39.61310000
1548 3 26.28780000 35.48370000 39.15030000
1549 3 24.37460000 37.24600000 40.19690000
1550 3 24.07500000 35.99410000 39.23390000
1551 1 41.78470000 33.96520000 18.09610000
1552 2 42.78550000 34.38190000 17.50690000
1553 2 41.47560000 32.66280000 18.23600000
1554 2 40.99870000 34.67930000 18.79970000
1555 1 40.21450000 32.47320000 18.86330000
1556 1 40.20220000 33.84550000 19.63780000
1557 3 40.23710000 31.56310000 19.39990000
1558 3 39.52560000 32.45130000 18.09180000
1559 3 40.81530000 33.70890000 20.51960000
1560 3 39.22670000 34.20480000 19.86660000
1561 1 39.31330000 10.62530000 11.22620000
1562 2 40.19200000 11.45640000 11.40430000
1563 2 38.99440000 9.50124000 11.95850000
1564 2 38.46910000 10.63980000 10.16540000
1565 1 38.31590000 8.62196000 11.14740000
1566 1 37.49230000 9.63846000 10.32190000
1567 3 37.77970000 7.87908000 11.75970000
1568 3 39.02760000 8.11830000 10.60260000
1569 3 36.62390000 10.02740000 10.82080000
1570 3 37.31210000 9.18458000 9.31163000
1571 1 36.68860000 37.08320000 36.08070000
1572 2 37.15630000 35.94720000 35.90610000
1573 2 36.42620000 37.97560000 35.15930000
1574 2 36.16390000 37.47540000 37.17460000
1575 1 35.92230000 39.17100000 35.72010000
1576 1 35.32930000 38.57130000 36.95950000
1577 3 35.21590000 39.64060000 35.00640000
1578 3 36.75240000 39.83470000 36.02300000
1579 3 34.33240000 38.18640000 36.71270000
1580 3 35.29100000 39.01310000 37.91420000
1581 1 16.88680000 39.08360000 29.28830000
1582 2 15.86020000 39.01530000 28.55180000
1583 2 17.53380000 40.21190000 29.58480000
1584 2 17.51720000 38.02420000 29.73380000
1585 1 18.76070000 39.90880000 30.27740000
1586 1 18.61790000 38.44980000 30.55690000
1587 3 18.76340000 40.49310000 31.29110000
1588 3 19.59510000 40.14090000 29.67330000
1589 3 18.52420000 38.21910000 31.64070000
1590 3 19.53620000 37.95480000 30.19580000
1591 1 42.59520000 10.74890000 6.64479000
1592 2 43.60010000 11.36020000 7.09117000
1593 2 42.61730000 9.68013000 5.79694000
1594 2 41.32770000 11.03760000 7.02279000
1595 1 41.39050000 9.05053000 5.61975000
1596 1 40.49500000 9.95638000 6.52009000
1597 3 41.50550000 8.01723000 6.04300000
1598 3 41.23390000 8.96609000 4.60167000
1599 3 39.91000000 9.42657000 7.28993000
1600 3 39.67700000 10.34210000 5.93664000
1601 1 32.34440000 5.67770000 5.53895000
1602 2 32.86490000 5.61709000 6.64663000
1603 2 31.79800000 4.66449000 4.88938000
1604 2 32.49390000 6.70450000 4.73986000
1605 1 31.43240000 5.01472000 3.56938000
1606 1 31.78980000 6.54286000 3.57434000
1607 3 30.41460000 4.71456000 3.30908000
1608 3 32.11280000 4.42496000 2.89796000
1609 3 30.87510000 7.06677000 3.49368000
1610 3 32.39320000 6.78775000 2.70148000
1611 1 28.77290000 5.71975000 40.68830000
1612 2 29.06480000 5.95147000 41.84730000
1613 2 29.21260000 4.70816000 39.93290000
1614 2 27.99230000 6.50012000 39.97400000
1615 1 28.72410000 4.80905000 38.60250000
1616 1 27.67800000 5.90168000 38.68310000
1617 3 28.36350000 3.78332000 38.25580000
1618 3 29.62250000 4.87718000 37.91450000
1619 3 26.65070000 5.54364000 38.69280000
1620 3 27.85010000 6.64320000 37.95310000
1621 1 14.74950000 34.89360000 18.33830000
1622 2 15.78870000 34.55400000 17.76750000
1623 2 14.08680000 34.14160000 19.25780000
1624 2 14.12840000 35.96660000 18.18780000
1625 1 12.91680000 34.68690000 19.80800000
1626 1 12.80680000 35.86640000 18.84620000
1627 3 13.17190000 34.97620000 20.79460000
1628 3 12.11060000 34.00430000 19.77330000
1629 3 12.63110000 36.67180000 19.58870000
1630 3 11.95400000 35.82810000 18.13630000
1631 1 19.19170000 40.27230000 40.05130000
1632 2 20.10390000 40.37830000 39.17930000
1633 2 18.66070000 39.18520000 40.43570000
1634 2 18.51530000 41.33670000 40.59420000
1635 1 17.68910000 39.37370000 41.47490000
1636 1 17.55570000 40.81690000 41.43560000
1637 3 17.97140000 39.02680000 42.39360000
1638 3 16.65310000 38.92650000 41.36470000
1639 3 17.93340000 41.10330000 42.40420000
1640 3 16.53340000 41.25050000 41.40670000
1641 1 15.67710000 35.26640000 22.19330000
1642 2 15.45430000 35.90100000 21.16640000
1643 2 15.29960000 35.63340000 23.45420000
1644 2 16.31860000 34.05690000 22.28270000
1645 1 15.97640000 34.84540000 24.39550000
1646 1 16.31850000 33.61310000 23.63980000
1647 3 15.30550000 34.64870000 25.29510000
1648 3 16.82660000 35.43710000 24.70390000
1649 3 15.42620000 32.97070000 23.75880000
1650 3 17.20820000 33.08820000 23.95560000
1651 1 5.93315000 16.07770000 33.03170000
1652 2 6.95801000 16.74880000 33.20500000
1653 2 6.02008000 14.91450000 32.39630000
1654 2 4.70097000 16.35560000 33.42250000
1655 1 4.72517000 14.34300000 32.12180000
1656 1 3.88258000 15.18280000 33.10310000
1657 3 4.52496000 13.29840000 32.42880000
1658 3 4.26654000 14.57680000 31.21320000
1659 3 3.59902000 14.59390000 33.94900000
1660 3 3.02280000 15.37260000 32.60970000
1661 1 6.54585000 30.82980000 26.37020000
1662 2 7.60699000 30.99120000 26.86550000
1663 2 5.44972000 30.67540000 26.95470000
1664 2 6.35331000 30.86400000 25.02720000
1665 1 4.38905000 30.38970000 26.04440000
1666 1 5.01534000 30.62330000 24.69610000
1667 3 3.64157000 31.17820000 26.32240000
1668 3 3.98917000 29.44080000 26.16890000
1669 3 4.49954000 31.52750000 24.22400000
1670 3 4.91308000 29.86420000 23.94860000
1671 1 28.65610000 0.80975800 40.03900000
1672 2 28.63970000 0.92965400 41.26170000
1673 2 29.60530000 1.38995000 39.24370000
1674 2 27.97990000 43.64910000 39.35390000
1675 1 29.34420000 1.07881000 37.93720000
1676 1 28.25400000 43.69340000 38.01410000
1677 3 30.24340000 0.66054400 37.49290000
1678 3 29.16700000 1.99828000 37.35710000
1679 3 28.54060000 42.73920000 37.62100000
1680 3 27.33230000 0.42684200 37.57030000
1681 1 22.23260000 7.69533000 21.09500000
1682 2 22.60500000 6.55633000 21.47290000
1683 2 21.45510000 8.53437000 21.77600000
1684 2 22.35720000 8.08144000 19.90150000
1685 1 21.13320000 9.66770000 21.01150000
1686 1 21.86030000 9.42129000 19.64020000
1687 3 21.46980000 10.52420000 21.51440000
1688 3 20.01470000 9.81390000 20.82750000
1689 3 22.59990000 10.16830000 19.39140000
1690 3 21.20840000 9.46734000 18.82060000
1691 1 27.72110000 10.72510000 43.83670000
1692 2 27.65510000 11.87350000 0.56957300
1693 2 28.01590000 9.74484000 0.88797300
1694 2 27.54080000 10.26560000 42.57670000
1695 1 27.72920000 8.48665000 0.26766700
1696 1 27.57050000 8.88168000 42.49870000
1697 3 26.75120000 8.21066000 0.63827900
1698 3 28.43200000 7.66078000 0.39483600
1699 3 26.58920000 8.61063000 42.06620000
1700 3 28.42830000 8.40103000 41.95750000
1701 1 6.14429000 39.35890000 7.59289000
1702 2 5.86088000 38.81960000 6.53185000
1703 2 7.11706000 40.23890000 7.66182000
1704 2 5.58634000 39.04670000 8.82708000
1705 1 7.40013000 40.40940000 8.99640000
1706 1 6.26968000 39.76010000 9.77184000
1707 3 7.50730000 41.48790000 9.17998000
1708 3 8.38186000 39.95740000 9.14508000
1709 3 5.49598000 40.48900000 10.11450000
1710 3 6.58967000 39.14760000 10.58410000
1711 1 17.07020000 17.31030000 1.18931000
1712 2 16.25980000 16.51660000 1.59884000
1713 2 18.15170000 16.94340000 0.58399500
1714 2 16.94960000 18.67800000 1.03863000
1715 1 18.79510000 17.96790000 43.72780000
1716 1 18.13620000 19.17120000 0.55818700
1717 3 18.67920000 18.00510000 42.61110000
1718 3 19.91710000 17.98990000 0.24500500
1719 3 18.03880000 19.93470000 43.46840000
1720 3 18.77910000 19.61510000 1.33970000
1721 1 4.23100000 34.72930000 35.29580000
1722 2 3.18740000 35.27660000 35.31700000
1723 2 4.56566000 33.80670000 36.17980000
1724 2 5.21838000 34.92610000 34.41030000
1725 1 5.84996000 33.29820000 35.88550000
1726 1 6.27444000 34.02400000 34.64450000
1727 3 5.85412000 32.23550000 35.72570000
1728 3 6.42836000 33.20350000 36.83060000
1729 3 6.42855000 33.28230000 33.89660000
1730 3 7.19674000 34.59900000 34.63490000
1731 1 26.48960000 29.15420000 34.37480000
1732 2 27.02240000 28.88680000 35.47450000
1733 2 27.11300000 28.99020000 33.26230000
1734 2 25.22190000 29.37090000 34.09370000
1735 1 26.41030000 29.48050000 32.12300000
1736 1 24.98140000 29.52110000 32.66910000
1737 3 26.66440000 29.04410000 31.14530000
1738 3 26.78750000 30.54890000 32.09850000
1739 3 24.26980000 28.80690000 32.26010000
1740 3 24.42620000 30.40870000 32.39090000
1741 1 11.52180000 9.44421000 7.21006000
1742 2 10.80770000 8.67096000 6.59620000
1743 2 11.51970000 10.72000000 6.95920000
1744 2 12.49780000 9.05867000 8.07574000
1745 1 12.54610000 11.33270000 7.75639000
1746 1 13.05220000 10.22300000 8.59510000
1747 3 12.11020000 12.21990000 8.27948000
1748 3 13.39280000 11.67970000 7.17924000
1749 3 12.52640000 10.36260000 9.64657000
1750 3 14.18840000 10.18430000 8.70957000
1751 1 28.19900000 18.82120000 32.43410000
1752 2 27.39070000 18.58640000 31.51510000
1753 2 28.38770000 18.01330000 33.48380000
1754 2 29.01760000 19.81440000 32.55390000
1755 1 29.32510000 18.54100000 34.36650000
1756 1 29.86260000 19.72190000 33.65310000
1757 3 30.09840000 17.72910000 34.43540000
1758 3 28.93160000 18.88710000 35.24470000
1759 3 30.88880000 19.54950000 33.28030000
1760 3 29.93390000 20.65050000 34.24250000
1761 1 25.76720000 14.56300000 36.64890000
1762 2 24.66660000 14.21750000 36.94960000
1763 2 26.15230000 15.73500000 36.24110000
1764 2 26.77810000 13.75280000 36.43320000
1765 1 27.45160000 15.82780000 35.88750000
1766 1 27.90590000 14.32410000 35.96900000
1767 3 28.01820000 16.37980000 36.58480000
1768 3 27.54660000 16.23690000 34.84450000
1769 3 28.64830000 14.06800000 36.77530000
1770 3 28.18530000 13.90190000 34.99560000
1771 1 18.46720000 23.53000000 34.16030000
1772 2 17.85230000 24.59220000 33.99060000
1773 2 18.74150000 22.63360000 33.19200000
1774 2 18.98620000 23.01740000 35.31690000
1775 1 19.30160000 21.46500000 33.73200000
1776 1 19.77690000 21.84610000 35.13160000
1777 3 20.14510000 21.02510000 33.18450000
1778 3 18.58190000 20.64610000 33.72150000
1779 3 20.82030000 22.07080000 35.05770000
1780 3 19.47400000 21.09080000 35.83920000
1781 1 19.36170000 1.61734000 14.71550000
1782 2 19.84480000 0.59242100 15.20230000
1783 2 18.63670000 2.56751000 15.42970000
1784 2 19.42710000 1.91892000 13.46640000
1785 1 18.35890000 3.64066000 14.52900000
1786 1 18.86770000 3.15150000 13.19520000
1787 3 18.89200000 4.54581000 14.87040000
1788 3 17.28480000 3.97694000 14.28630000
1789 3 19.57740000 3.89261000 12.86460000
1790 3 18.14450000 3.09367000 12.44600000
1791 1 29.40710000 34.25310000 33.33720000
1792 2 30.16140000 35.09430000 33.83100000
1793 2 29.17740000 33.90630000 32.04540000
1794 2 28.62490000 33.44410000 34.05070000
1795 1 28.19340000 32.88760000 31.92090000
1796 1 27.88430000 32.49680000 33.30470000
1797 3 28.56970000 32.05950000 31.37560000
1798 3 27.27400000 33.26220000 31.43790000
1799 3 28.03580000 31.44360000 33.59700000
1800 3 26.79680000 32.74600000 33.51830000
1801 1 38.69920000 31.89290000 37.64880000
1802 2 39.54380000 31.75030000 38.55330000
1803 2 38.32200000 31.03160000 36.70210000
1804 2 38.12910000 33.04140000 37.37790000
1805 1 37.56200000 31.61810000 35.63650000
1806 1 37.60330000 33.06350000 36.05870000
1807 3 36.47890000 31.20560000 35.64730000
1808 3 37.94280000 31.27450000 34.65820000
1809 3 36.55510000 33.55910000 36.03850000
1810 3 38.30370000 33.74180000 35.58350000
1811 1 9.89742000 22.84750000 22.31620000
1812 2 8.74513000 23.05360000 22.70290000
1813 2 10.16740000 22.06360000 21.29970000
1814 2 10.97970000 23.32090000 22.81950000
1815 1 11.54370000 21.92110000 21.06400000
1816 1 12.14890000 23.02870000 21.99660000
1817 3 11.81370000 22.32340000 20.06490000
1818 3 12.02440000 20.94380000 21.24330000
1819 3 12.36570000 23.89030000 21.45150000
1820 3 13.03390000 22.71320000 22.44600000
1821 1 40.79760000 26.85990000 11.83820000
1822 2 40.51130000 27.81480000 11.19580000
1823 2 41.96120000 26.27750000 11.91900000
1824 2 39.94100000 26.19800000 12.55230000
1825 1 42.13820000 25.38970000 13.03190000
1826 1 40.60080000 25.05970000 13.19910000
1827 3 42.65860000 25.89030000 13.85910000
1828 3 42.73860000 24.53060000 12.68280000
1829 3 40.17760000 24.87420000 14.22250000
1830 3 40.26440000 24.25730000 12.72660000
1831 1 39.67500000 38.20160000 6.17128000
1832 2 40.00090000 39.36010000 6.57424000
1833 2 39.27630000 37.23180000 6.94647000
1834 2 39.68640000 37.78120000 4.96238000
1835 1 39.26030000 36.01160000 6.23695000
1836 1 38.98810000 36.52080000 4.82999000
1837 3 38.43970000 35.33920000 6.46129000
1838 3 40.19980000 35.43770000 6.29818000
1839 3 37.90430000 36.65060000 4.77298000
1840 3 39.36880000 35.92600000 3.98976000
1841 1 2.19680000 33.60440000 13.58620000
1842 2 3.18105000 32.96750000 13.32410000
1843 2 1.58350000 34.41060000 12.66230000
1844 2 1.54624000 33.53040000 14.76190000
1845 1 0.39568600 34.95990000 13.25720000
1846 1 0.55732100 34.46100000 14.68920000
1847 3 43.27000000 34.47420000 12.91660000
1848 3 0.13490600 36.02360000 13.03020000
1849 3 43.27200000 34.14900000 15.05630000
1850 3 0.81290200 35.32580000 15.31020000
1851 1 23.36360000 26.34940000 12.18360000
1852 2 23.61480000 25.19290000 12.47900000
1853 2 22.93790000 26.78530000 11.05340000
1854 2 23.48230000 27.38610000 13.04100000
1855 1 23.06290000 28.18630000 10.95090000
1856 1 23.38420000 28.65760000 12.41670000
1857 3 22.03800000 28.58120000 10.64530000
1858 3 23.88240000 28.59380000 10.31570000
1859 3 22.60740000 29.29690000 12.86260000
1860 3 24.32760000 29.08020000 12.50900000
1861 1 41.47040000 14.88000000 10.05090000
1862 2 42.32980000 14.42900000 9.31147000
1863 2 40.27870000 14.38750000 10.25200000
1864 2 41.65330000 16.04270000 10.64530000
1865 1 39.55260000 15.21910000 11.14300000
1866 1 40.41940000 16.49060000 11.14500000
1867 3 39.58240000 14.75750000 12.12060000
1868 3 38.51720000 15.29910000 10.78610000
1869 3 40.41970000 17.07690000 12.08110000
1870 3 39.90790000 17.01840000 10.28090000
1871 1 43.59420000 12.68300000 24.62800000
1872 2 42.70680000 12.03670000 25.19850000
1873 2 1.06665000 13.04150000 25.16530000
1874 2 43.65370000 12.90710000 23.29710000
1875 1 1.94550000 13.48410000 24.19290000
1876 1 1.16880000 13.36910000 22.84380000
1877 3 2.84563000 12.80210000 24.26200000
1878 3 2.11042000 14.49090000 24.46360000
1879 3 1.49585000 12.52290000 22.28880000
1880 3 0.86299200 14.14240000 22.10830000
1881 1 32.23570000 18.49140000 36.64240000
1882 2 31.83480000 17.43290000 36.20780000
1883 2 33.12410000 18.60660000 37.68630000
1884 2 31.87440000 19.72870000 36.28150000
1885 1 33.33950000 19.87720000 38.20470000
1886 1 32.53080000 20.65410000 37.16300000
1887 3 34.41240000 20.04910000 38.18210000
1888 3 32.96210000 20.11850000 39.20700000
1889 3 33.09920000 21.40400000 36.54470000
1890 3 31.77130000 21.25360000 37.54340000
1891 1 29.87630000 2.89090000 29.94630000
1892 2 29.00900000 2.24327000 29.35530000
1893 2 30.11160000 4.15556000 29.93580000
1894 2 30.76160000 2.31248000 30.82880000
1895 1 31.04540000 4.56900000 31.02240000
1896 1 31.64410000 3.22882000 31.37930000
1897 3 30.47930000 5.01284000 31.83420000
1898 3 31.58550000 5.43897000 30.82470000
1899 3 31.55770000 2.96851000 32.41710000
1900 3 32.60520000 3.03550000 30.97370000
1901 1 8.39138000 4.79657000 26.01760000
1902 2 9.06739000 3.80312000 25.82030000
1903 2 8.76107000 5.84008000 26.69480000
1904 2 7.16381000 4.91558000 25.77040000
1905 1 7.83715000 6.93491000 26.43670000
1906 1 6.59065000 6.12766000 26.24200000
1907 3 8.08094000 7.38121000 25.51730000
1908 3 7.90775000 7.64725000 27.26170000
1909 3 5.90354000 6.56108000 25.56180000
1910 3 5.97530000 6.01465000 27.14640000
1911 1 21.27060000 21.07590000 10.53190000
1912 2 20.83260000 19.99790000 10.18320000
1913 2 21.27710000 22.09020000 9.86841000
1914 2 21.80270000 21.30780000 11.69180000
1915 1 21.93920000 23.16460000 10.58080000
1916 1 22.60280000 22.47750000 11.74750000
1917 3 21.42510000 24.03260000 10.97460000
1918 3 22.43820000 23.61010000 9.78563000
1919 3 22.48870000 23.08160000 12.60110000
1920 3 23.61070000 22.35570000 11.51640000
1921 1 15.05290000 30.34220000 6.41257000
1922 2 14.61450000 29.33690000 6.97919000
1923 2 14.57030000 31.54590000 6.45394000
1924 2 16.10400000 30.32960000 5.59474000
1925 1 15.19610000 32.33900000 5.45569000
1926 1 16.47060000 31.55360000 5.16892000
1927 3 15.26980000 33.36290000 5.70438000
1928 3 14.54390000 32.29940000 4.54677000
1929 3 17.25180000 31.86930000 5.85298000
1930 3 16.80440000 31.52020000 4.12470000
1931 1 11.82340000 26.29320000 4.76153000
1932 2 10.81340000 26.56340000 5.29034000
1933 2 12.96020000 25.96190000 5.40230000
1934 2 11.98080000 26.22040000 3.45409000
1935 1 13.92220000 25.41850000 4.55416000
1936 1 13.32400000 25.94390000 3.19521000
1937 3 13.67040000 24.31660000 4.56121000
1938 3 14.94470000 25.63270000 4.87016000
1939 3 13.33870000 25.36130000 2.33489000
1940 3 13.88790000 26.82620000 3.03643000
1941 1 33.75670000 26.73710000 23.59800000
1942 2 33.80680000 27.63240000 22.81720000
1943 2 33.00810000 26.72450000 24.78520000
1944 2 34.33000000 25.62490000 23.38380000
1945 1 32.96430000 25.33260000 25.21260000
1946 1 34.17860000 24.72130000 24.49990000
1947 3 32.05920000 24.88660000 24.86630000
1948 3 33.09500000 25.20680000 26.29340000
1949 3 33.99660000 23.63770000 24.21060000
1950 3 34.99980000 24.73780000 25.22980000
1951 1 14.77140000 3.86882000 5.37614000
1952 2 15.02140000 4.74846000 6.14989000
1953 2 15.47810000 2.76696000 5.26236000
1954 2 13.81930000 3.84945000 4.43343000
1955 1 15.02420000 1.89301000 4.23150000
1956 1 13.73150000 2.64945000 3.73380000
1957 3 14.80860000 0.88957900 4.65440000
1958 3 15.70910000 1.73946000 3.37984000
1959 3 12.77740000 2.12320000 3.87470000
1960 3 13.86830000 2.72119000 2.69898000
1961 1 1.38948000 26.58340000 15.98560000
1962 2 0.97791600 27.76470000 15.74390000
1963 2 1.79271000 26.09980000 17.14810000
1964 2 1.69910000 25.78180000 15.00590000
1965 1 2.23118000 24.76980000 17.01500000
1966 1 2.10847000 24.55240000 15.55030000
1967 3 1.53607000 24.12280000 17.52510000
1968 3 3.23227000 24.52860000 17.29470000
1969 3 1.31946000 23.80680000 15.47140000
1970 3 3.05415000 24.08220000 15.15100000
1971 1 19.41300000 9.31611000 1.41450000
1972 2 18.89450000 8.79848000 0.42014000
1973 2 20.60040000 9.00372000 1.84978000
1974 2 18.94200000 10.30370000 2.11834000
1975 1 20.90290000 9.53224000 3.15696000
1976 1 19.97190000 10.70670000 3.02242000
1977 3 21.93310000 9.87549000 3.39965000
1978 3 20.62000000 8.83112000 3.97477000
1979 3 20.59640000 11.53370000 2.64190000
1980 3 19.57550000 11.03650000 3.95295000
1981 1 0.27680700 23.76910000 3.05122000
1982 2 0.20820200 22.93050000 2.18706000
1983 2 42.91950000 24.25360000 3.68576000
1984 2 1.35663000 24.22970000 3.69094000
1985 1 43.28430000 25.19140000 4.67905000
1986 1 1.03072000 24.86370000 4.88762000
1987 3 42.53470000 25.03470000 5.46003000
1988 3 43.21620000 26.18990000 4.27778000
1989 3 1.17282000 24.17950000 5.69226000
1990 3 1.72361000 25.69420000 5.10313000
1991 1 10.97710000 38.76660000 30.76310000
1992 2 10.02300000 39.05380000 31.42210000
1993 2 12.23280000 39.20350000 30.90580000
1994 2 11.00240000 38.02140000 29.72200000
1995 1 13.05720000 38.87490000 29.85580000
1996 1 12.23960000 37.81410000 29.12350000
1997 3 14.06710000 38.46260000 30.14430000
1998 3 13.05310000 39.65050000 29.12010000
1999 3 12.48180000 36.73390000 29.24110000
2000 3 12.19840000 37.99440000 28.03180000
2001 1 26.58440000 19.71090000 0.74265800
2002 2 26.27330000 20.57730000 1.51893000
2003 2 27.77370000 19.25360000 0.62980100
2004 2 25.83400000 19.11700000 43.46610000
2005 1 28.04580000 18.44580000 43.21320000
2006 1 26.58250000 18.18680000 42.73050000
2007 3 28.42730000 17.41220000 43.45670000
2008 3 28.64670000 18.82260000 42.41940000
2009 3 26.16970000 17.17140000 42.76090000
2010 3 26.54540000 18.54040000 41.71740000
2011 1 9.11981000 43.82080000 20.27350000
2012 2 10.24170000 0.18674000 20.70280000
2013 2 8.05955000 43.32800000 20.98190000
2014 2 8.69142000 0.52388200 19.05360000
2015 1 6.82658000 43.62930000 20.27920000
2016 1 7.34680000 0.33962300 18.89270000
2017 3 6.22800000 0.85860400 20.62480000
2018 3 6.10724000 42.77280000 20.35980000
2019 3 6.89584000 1.33780000 18.63540000
2020 3 7.20743000 43.33680000 18.06940000
2021 1 12.69520000 26.90240000 12.90410000
2022 2 13.80120000 26.51940000 12.55210000
2023 2 12.00810000 27.81390000 12.32570000
2024 2 12.14280000 26.57780000 14.04860000
2025 1 11.09020000 28.31430000 13.18050000
2026 1 10.96080000 27.26640000 14.24390000
2027 3 10.25510000 28.50170000 12.60220000
2028 3 11.44760000 29.23740000 13.50870000
2029 3 10.02790000 26.72410000 13.96440000
2030 3 10.85770000 27.63510000 15.23710000
2031 1 8.56993000 40.67810000 38.37680000
2032 2 8.48623000 41.86940000 38.26910000
2033 2 7.57551000 39.85510000 38.37260000
2034 2 9.68598000 40.11600000 38.77300000
2035 1 8.02833000 38.61320000 39.00740000
2036 1 9.55709000 38.76590000 39.01830000
2037 3 7.61212000 37.76420000 38.57280000
2038 3 7.55777000 38.71210000 39.96680000
2039 3 10.05880000 38.08100000 38.27630000
2040 3 9.93732000 38.55230000 40.01570000
2041 1 14.26550000 29.51090000 19.09510000
2042 2 14.16380000 28.86130000 18.07030000
2043 2 14.65070000 29.00600000 20.34720000
2044 2 14.04310000 30.80860000 19.19020000
2045 1 14.40130000 29.99410000 21.28360000
2046 1 14.34280000 31.25160000 20.47780000
2047 3 15.24060000 29.81570000 22.01620000
2048 3 13.54150000 29.78780000 21.80160000
2049 3 15.39980000 31.65810000 20.56310000
2050 3 13.62780000 32.05720000 20.78690000
2051 1 28.94470000 9.27883000 17.19920000
2052 2 28.72840000 10.38940000 17.73670000
2053 2 29.62930000 8.29550000 17.74380000
2054 2 28.55180000 9.01983000 16.00750000
2055 1 29.62780000 7.21406000 16.80560000
2056 1 28.76020000 7.69443000 15.64550000
2057 3 29.34420000 6.30577000 17.37000000
2058 3 30.62150000 7.17333000 16.50840000
2059 3 27.72810000 7.24466000 15.68930000
2060 3 29.10880000 7.52801000 14.64820000
2061 1 39.95280000 28.34540000 7.08834000
2062 2 38.76350000 28.31460000 6.75499000
2063 2 40.68990000 27.30570000 7.22124000
2064 2 40.52410000 29.43210000 7.52877000
2065 1 42.01870000 27.74660000 7.43541000
2066 1 41.80240000 29.15150000 7.91177000
2067 3 42.52590000 27.89970000 6.45886000
2068 3 42.50130000 27.09220000 8.12270000
2069 3 42.58100000 29.81790000 7.47810000
2070 3 41.81770000 29.21960000 9.03872000
2071 1 34.04220000 7.63669000 32.04580000
2072 2 33.12810000 7.00897000 32.50410000
2073 2 34.00330000 8.25126000 30.88220000
2074 2 35.12890000 7.85499000 32.64490000
2075 1 35.28620000 8.67200000 30.52170000
2076 1 35.90480000 8.79183000 31.84960000
2077 3 35.26590000 9.56610000 29.89020000
2078 3 35.81720000 7.89891000 30.00890000
2079 3 35.81390000 9.85830000 32.14870000
2080 3 37.03490000 8.46497000 31.99380000
2081 1 9.93442000 25.56660000 35.30940000
2082 2 10.71740000 26.08390000 36.11620000
2083 2 8.65328000 25.79080000 35.23050000
2084 2 10.29340000 24.73440000 34.29950000
2085 1 8.02705000 25.22530000 34.13130000
2086 1 9.12032000 24.37430000 33.56000000
2087 3 7.66216000 26.03480000 33.40050000
2088 3 7.07996000 24.64250000 34.28620000
2089 3 9.31401000 24.40920000 32.47290000
2090 3 8.87964000 23.34340000 33.78250000
2091 1 25.56530000 4.97865000 42.34610000
2092 2 25.81100000 6.00314000 42.90810000
2093 2 25.48510000 4.88166000 41.10770000
2094 2 25.30790000 3.77359000 42.82720000
2095 1 25.25460000 3.58932000 40.59180000
2096 1 24.93700000 2.83354000 41.86990000
2097 3 26.20680000 3.18133000 40.15510000
2098 3 24.41310000 3.58344000 39.94120000
2099 3 25.38870000 1.83110000 42.05760000
2100 3 23.80130000 2.55266000 41.92560000
2101 1 20.63720000 18.88500000 30.56150000
2102 2 21.77460000 19.41100000 30.26940000
2103 2 19.99470000 17.98300000 29.82690000
2104 2 19.81220000 19.23540000 31.57460000
2105 1 18.73620000 17.59840000 30.32180000
2106 1 18.75820000 18.21600000 31.67770000
2107 3 18.68180000 16.55570000 30.49750000
2108 3 17.89230000 18.10360000 29.82000000
2109 3 18.84210000 17.42500000 32.49860000
2110 3 17.87100000 18.71940000 32.11330000
2111 1 39.48050000 37.47760000 26.40560000
2112 2 39.09440000 37.10520000 25.28730000
2113 2 40.76170000 37.33920000 26.88420000
2114 2 38.77190000 38.00300000 27.33830000
2115 1 40.91100000 37.68690000 28.22040000
2116 1 39.44470000 37.95550000 28.60050000
2117 3 41.49020000 38.52780000 28.32700000
2118 3 41.37880000 36.81820000 28.75440000
2119 3 39.35970000 38.77310000 29.24120000
2120 3 39.04440000 37.03740000 29.10940000
2121 1 35.38740000 3.24386000 30.14360000
2122 2 35.92010000 2.44905000 30.86410000
2123 2 34.70690000 4.24003000 30.52230000
2124 2 35.45740000 3.20046000 28.83180000
2125 1 34.51260000 5.12933000 29.39760000
2126 1 34.65360000 4.14044000 28.16270000
2127 3 35.17670000 5.94889000 29.28600000
2128 3 33.51930000 5.58353000 29.49630000
2129 3 35.11190000 4.55916000 27.38080000
2130 3 33.70670000 3.77227000 27.88920000
2131 1 35.48060000 28.85440000 2.60003000
2132 2 34.85940000 29.35640000 1.69357000
2133 2 34.96250000 28.42500000 3.78716000
2134 2 36.73960000 28.33050000 2.56882000
2135 1 35.78410000 27.50720000 4.43545000
2136 1 37.09500000 27.86950000 3.83693000
2137 3 35.69760000 26.40190000 4.08460000
2138 3 35.84390000 27.52800000 5.55091000
2139 3 37.74270000 27.00790000 3.63783000
2140 3 37.61740000 28.56610000 4.51782000
2141 1 35.00550000 43.02590000 33.80180000
2142 2 35.68250000 42.96120000 34.81960000
2143 2 35.19190000 0.13899000 32.77540000
2144 2 34.11970000 42.09750000 33.37250000
2145 1 34.29630000 43.64710000 31.73410000
2146 1 33.50830000 42.46870000 32.13300000
2147 3 34.86230000 43.38380000 30.86350000
2148 3 33.66410000 0.81547700 31.73210000
2149 3 33.66680000 41.64620000 31.35360000
2150 3 32.45810000 42.60080000 32.16730000
2151 1 40.62220000 15.70630000 32.67610000
2152 2 40.51390000 14.92260000 31.69260000
2153 2 41.14930000 16.84790000 32.63730000
2154 2 39.92740000 15.67490000 33.78550000
2155 1 41.30860000 17.41480000 33.94980000
2156 1 40.04470000 16.80050000 34.64530000
2157 3 41.36500000 18.51080000 33.94230000
2158 3 42.18810000 17.13430000 34.49340000
2159 3 39.07350000 17.25530000 34.45230000
2160 3 40.24200000 16.45750000 35.66430000
2161 1 38.09940000 6.84236000 22.19450000
2162 2 37.10240000 6.16970000 22.03310000
2163 2 39.33110000 6.38094000 22.50180000
2164 2 38.08910000 8.19130000 22.12090000
2165 1 40.24160000 7.44600000 22.43340000
2166 1 39.37650000 8.73388000 22.31800000
2167 3 40.80930000 7.54252000 21.55600000
2168 3 40.83260000 7.56880000 23.28720000
2169 3 39.44530000 9.33338000 21.43540000
2170 3 39.30330000 9.45806000 23.10350000
2171 1 15.98220000 2.62948000 22.37320000
2172 2 15.41700000 3.45199000 21.64950000
2173 2 16.58240000 2.97941000 23.40980000
2174 2 16.10370000 1.36133000 22.30070000
2175 1 17.12230000 1.97312000 24.13440000
2176 1 16.91360000 0.79275200 23.28410000
2177 3 16.59410000 1.86604000 25.12880000
2178 3 18.15310000 2.20322000 24.46210000
2179 3 16.31850000 43.70200000 23.83020000
2180 3 17.83160000 0.34707700 22.94190000
2181 1 42.75360000 21.08080000 22.74990000
2182 2 42.85120000 21.65120000 23.80920000
2183 2 42.36270000 21.58710000 21.60040000
2184 2 43.06390000 19.78410000 22.58780000
2185 1 42.32430000 20.61920000 20.56210000
2186 1 42.71120000 19.31710000 21.27850000
2187 3 43.11490000 20.95810000 19.87790000
2188 3 41.43520000 20.44490000 20.02680000
2189 3 43.73850000 18.98690000 20.89360000
2190 3 41.90440000 18.60910000 21.36010000
2191 1 14.22810000 23.81370000 35.77390000
2192 2 14.81990000 23.74160000 36.84380000
2193 2 14.46050000 24.68260000 34.82670000
2194 2 13.17850000 23.08630000 35.34300000
2195 1 13.49150000 24.62420000 33.79740000
2196 1 12.98000000 23.28010000 33.93850000
2197 3 14.05280000 24.82820000 32.90290000
2198 3 12.80690000 25.41990000 33.98640000
2199 3 13.71000000 22.62400000 33.40960000
2200 3 11.94890000 23.14870000 33.60380000
2201 1 19.33780000 8.37630000 28.34650000
2202 2 18.57970000 8.09656000 27.45290000
2203 2 20.39610000 9.15525000 28.19930000
2204 2 19.33080000 7.97395000 29.56850000
2205 1 21.19580000 9.28313000 29.35280000
2206 1 20.29690000 8.59600000 30.37120000
2207 3 21.44050000 10.37180000 29.62560000
2208 3 22.08860000 8.66147000 29.20420000
2209 3 19.78330000 9.37168000 30.99650000
2210 3 20.66920000 8.00647000 31.18760000
2211 1 29.12080000 30.89140000 17.31330000
2212 2 29.76130000 30.64740000 16.31660000
2213 2 28.02850000 30.33120000 17.72080000
2214 2 29.53540000 31.74250000 18.22570000
2215 1 27.44790000 31.00040000 18.87090000
2216 1 28.64630000 31.86260000 19.32230000
2217 3 27.00740000 30.28340000 19.54690000
2218 3 26.61240000 31.58280000 18.37590000
2219 3 29.30670000 31.33520000 20.05840000
2220 3 28.57100000 32.90650000 19.66390000
2221 1 20.67740000 19.05950000 13.47380000
2222 2 19.45650000 18.97930000 13.46150000
2223 2 21.41020000 19.74930000 14.28330000
2224 2 21.42000000 18.14630000 12.82230000
2225 1 22.79540000 19.50540000 14.06850000
2226 1 22.81030000 18.38850000 12.99970000
2227 3 23.37280000 19.21220000 15.00580000
2228 3 23.47090000 20.35060000 13.73470000
2229 3 23.28260000 17.45710000 13.24170000
2230 3 23.23810000 18.79870000 12.13110000
2231 1 24.80090000 34.90960000 42.77590000
2232 2 24.96430000 34.76650000 41.55450000
2233 2 25.62710000 35.23520000 43.61800000
2234 2 23.62450000 34.79110000 43.34240000
2235 1 25.22980000 35.35710000 1.28468000
2236 1 23.72620000 34.90340000 1.07185000
2237 3 25.28690000 36.44100000 1.54426000
2238 3 25.79580000 34.77680000 1.95766000
2239 3 23.09980000 35.71220000 1.48036000
2240 3 23.49000000 33.89090000 1.52159000
2241 1 33.45500000 16.64970000 13.24780000
2242 2 34.13070000 16.70070000 14.28960000
2243 2 32.77480000 17.63900000 12.72900000
2244 2 33.25890000 15.62470000 12.53840000
2245 1 32.11200000 17.29520000 11.60970000
2246 1 32.48700000 15.84810000 11.38070000
2247 3 32.52340000 17.95880000 10.83680000
2248 3 31.03710000 17.46800000 11.66960000
2249 3 32.97530000 15.81650000 10.43390000
2250 3 31.63610000 15.20790000 11.36990000
2251 1 4.71301000 22.64780000 40.20600000
2252 2 4.00209000 23.43700000 39.61290000
2253 2 4.84966000 22.61680000 41.52060000
2254 2 5.39662000 21.69170000 39.67570000
2255 1 5.59081000 21.57450000 41.99450000
2256 1 6.18600000 21.06560000 40.65650000
2257 3 4.98330000 20.80750000 42.43880000
2258 3 6.25570000 22.05220000 42.75890000
2259 3 6.22318000 19.98420000 40.61360000
2260 3 7.14924000 21.47520000 40.57980000
2261 1 6.73306000 13.17720000 8.03666000
2262 2 5.82042000 13.24840000 7.27513000
2263 2 7.90671000 12.62190000 7.70094000
2264 2 6.79103000 13.67340000 9.25624000
2265 1 8.95684000 12.87910000 8.68674000
2266 1 7.98359000 13.16940000 9.90067000
2267 3 9.52913000 13.75450000 8.48005000
2268 3 9.59891000 11.99230000 8.90694000
2269 3 8.41569000 13.86990000 10.65810000
2270 3 7.89437000 12.15650000 10.34740000
2271 1 22.62400000 34.70940000 4.97651000
2272 2 22.33710000 35.72200000 4.31830000
2273 2 21.88900000 34.25430000 5.93682000
2274 2 23.57440000 33.93070000 4.68630000
2275 1 22.24270000 32.87820000 6.21940000
2276 1 23.65910000 32.82190000 5.68030000
2277 3 21.66690000 32.15030000 5.60811000
2278 3 22.16030000 32.66450000 7.28931000
2279 3 23.81100000 31.91750000 5.04145000
2280 3 24.48150000 32.92190000 6.43879000
2281 1 33.83720000 4.07768000 40.22870000
2282 2 34.60010000 4.68030000 40.91110000
2283 2 33.45920000 2.76121000 40.30280000
2284 2 33.17750000 4.52831000 39.12420000
2285 1 32.71420000 2.28928000 39.21690000
2286 1 32.25520000 3.62139000 38.67570000
2287 3 31.96590000 1.51577000 39.46780000
2288 3 33.31960000 1.76818000 38.42360000
2289 3 31.33040000 3.90845000 39.18280000
2290 3 32.06920000 3.64943000 37.68410000
2291 1 23.95020000 10.76110000 0.76917100
2292 2 24.45150000 10.41530000 1.84836000
2293 2 23.89860000 11.96770000 0.22944900
2294 2 23.35190000 9.87795000 43.82000000
2295 1 23.46060000 11.78910000 42.60390000
2296 1 22.90170000 10.40790000 42.55760000
2297 3 24.35010000 11.64090000 42.00450000
2298 3 22.94260000 12.59630000 42.16210000
2299 3 23.41310000 9.84528000 41.77210000
2300 3 21.80890000 10.30930000 42.37720000
2301 1 14.62710000 5.32207000 36.27170000
2302 2 14.49690000 4.18718000 35.71440000
2303 2 14.36910000 5.61554000 37.59740000
2304 2 15.04470000 6.44602000 35.66120000
2305 1 14.72080000 6.94252000 37.90820000
2306 1 15.11440000 7.59925000 36.55700000
2307 3 15.48080000 6.98995000 38.71070000
2308 3 13.86860000 7.36606000 38.38990000
2309 3 16.07570000 8.03614000 36.61130000
2310 3 14.38470000 8.41259000 36.35860000
2311 1 18.75430000 2.95070000 9.62341000
2312 2 19.85090000 2.98588000 10.18970000
2313 2 18.03980000 1.81000000 9.40871000
2314 2 18.02260000 4.00037000 9.27308000
2315 1 16.92600000 2.10480000 8.62848000
2316 1 16.72670000 3.55987000 8.90531000
2317 3 16.17270000 1.47044000 9.01540000
2318 3 17.07980000 1.93690000 7.49815000
2319 3 15.98470000 3.83909000 9.72155000
2320 3 16.34760000 4.21142000 8.02469000
2321 1 9.91454000 37.22470000 42.37690000
2322 2 9.28096000 36.68110000 41.47870000
2323 2 9.66197000 36.93270000 43.67720000
2324 2 10.74660000 38.19960000 42.32140000
2325 1 10.43360000 37.70640000 0.91686700
2326 1 11.17780000 38.64880000 43.62580000
2327 3 10.96400000 37.06140000 1.52569000
2328 3 9.65225000 38.15110000 1.52763000
2329 3 12.21430000 38.62610000 43.70200000
2330 3 10.88060000 39.70490000 43.77470000
2331 1 36.53360000 43.59240000 6.66450000
2332 2 36.54400000 42.51820000 6.04075000
2333 2 37.25450000 0.27549600 7.75895000
2334 2 35.62030000 0.84916500 6.43177000
2335 1 36.95020000 1.56455000 8.18992000
2336 1 35.60710000 1.82637000 7.46495000
2337 3 37.73430000 2.24518000 7.86592000
2338 3 36.84820000 1.55992000 9.28085000
2339 3 35.71610000 2.84787000 7.05588000
2340 3 34.71030000 1.86926000 8.11265000
2341 1 29.39130000 10.38770000 6.04249000
2342 2 28.47560000 10.22490000 6.83436000
2343 2 29.37980000 11.30510000 5.13302000
2344 2 30.43470000 9.72762000 5.86695000
2345 1 30.55520000 11.52100000 4.46232000
2346 1 31.23050000 10.17240000 4.79562000
2347 3 31.10820000 12.40880000 4.79178000
2348 3 30.09390000 11.66070000 3.47302000
2349 3 32.33480000 10.13940000 5.10362000
2350 3 30.99490000 9.51515000 3.96160000
2351 1 11.32000000 19.40890000 34.30990000
2352 2 12.46830000 19.55920000 34.74160000
2353 2 10.96550000 19.54060000 33.06200000
2354 2 10.45200000 18.86610000 34.96870000
2355 1 9.55158000 19.26040000 32.95170000
2356 1 9.45729000 18.34440000 34.14360000
2357 3 9.27553000 18.76130000 32.02090000
2358 3 8.94838000 20.16260000 33.13650000
2359 3 9.87193000 17.29570000 33.99970000
2360 3 8.51095000 18.24630000 34.64380000
2361 1 31.29140000 39.11400000 31.64500000
2362 2 31.63800000 38.99080000 30.44170000
2363 2 30.32600000 38.50910000 32.27220000
2364 2 31.75320000 40.11100000 32.39930000
2365 1 30.01390000 39.16760000 33.48230000
2366 1 31.19770000 40.08230000 33.67400000
2367 3 29.75390000 38.44040000 34.26100000
2368 3 29.10140000 39.77000000 33.35380000
2369 3 31.87690000 39.59600000 34.40280000
2370 3 30.82380000 41.02650000 34.05900000
2371 1 2.88584000 1.64941000 40.99920000
2372 2 2.30111000 0.59291500 40.64810000
2373 2 3.22632000 1.93411000 42.25600000
2374 2 3.48713000 2.48097000 40.18800000
2375 1 4.11915000 3.02217000 42.32250000
2376 1 3.96161000 3.60385000 40.89670000
2377 3 5.18546000 2.69127000 42.44740000
2378 3 3.75145000 3.63755000 43.20060000
2379 3 4.85578000 3.91450000 40.33800000
2380 3 3.24936000 4.43263000 40.98050000
2381 1 8.22335000 9.18399000 20.40690000
2382 2 7.72119000 10.09520000 19.66250000
2383 2 7.96010000 7.96456000 20.16810000
2384 2 8.90554000 9.44977000 21.55120000
2385 1 8.66523000 7.20295000 21.12990000
2386 1 9.00601000 8.23548000 22.24390000
2387 3 9.59460000 6.65238000 20.85910000
2388 3 7.92363000 6.52493000 21.56570000
2389 3 10.00770000 8.18586000 22.67260000
2390 3 8.36271000 8.19596000 23.05870000
2391 1 38.33640000 10.50510000 15.67600000
2392 2 38.40860000 11.70540000 16.07260000
2393 2 37.17550000 9.82316000 15.38700000
2394 2 39.42260000 9.68032000 15.64320000
2395 1 37.45310000 8.42579000 15.09810000
2396 1 39.01060000 8.37639000 15.21770000
2397 3 37.17440000 8.24184000 14.09950000
2398 3 36.86970000 7.82098000 15.82660000
2399 3 39.43770000 8.16908000 14.22620000
2400 3 39.27890000 7.64055000 15.90690000
2401 1 35.01200000 35.21460000 33.16410000
2402 2 35.76640000 34.40100000 33.62610000
2403 2 33.91470000 35.52050000 33.71170000
2404 2 35.17400000 35.82340000 31.99190000
2405 1 33.11770000 36.39400000 32.90540000
2406 1 34.03520000 36.67850000 31.70050000
2407 3 32.79330000 37.27000000 33.34980000
2408 3 32.20770000 35.83210000 32.73520000
2409 3 34.17810000 37.80250000 31.65080000
2410 3 33.78840000 36.31720000 30.66330000
2411 1 25.29300000 2.78468000 36.25700000
2412 2 26.12440000 2.53237000 37.15090000
2413 2 24.62390000 3.88404000 36.15190000
2414 2 25.05000000 1.97738000 35.25970000
2415 1 23.74550000 3.87481000 35.02780000
2416 1 24.20070000 2.57218000 34.29870000
2417 3 23.91400000 4.78209000 34.42270000
2418 3 22.69370000 3.83226000 35.39150000
2419 3 24.63510000 2.68638000 33.32970000
2420 3 23.35510000 1.91594000 34.17560000
2421 1 22.05970000 2.57332000 4.66781000
2422 2 21.59580000 3.50829000 5.37642000
2423 2 23.35920000 2.23426000 4.64860000
2424 2 21.34210000 1.82500000 3.84443000
2425 1 23.57770000 1.20760000 3.67869000
2426 1 22.08700000 0.99979900 3.03590000
2427 3 24.05760000 0.40128700 4.19772000
2428 3 24.24660000 1.50632000 2.93869000
2429 3 21.80540000 43.64540000 3.04404000
2430 3 22.03680000 1.44634000 2.06313000
2431 1 24.31350000 43.16360000 39.57390000
2432 2 25.00400000 0.33176300 40.15130000
2433 2 24.12740000 41.93120000 40.04790000
2434 2 23.55290000 43.40000000 38.55970000
2435 1 23.31690000 41.13990000 39.26650000
2436 1 22.82020000 42.23470000 38.33010000
2437 3 22.52350000 40.74550000 39.87260000
2438 3 23.83500000 40.35060000 38.71930000
2439 3 21.74070000 42.46060000 38.45350000
2440 3 23.10420000 41.81970000 37.33890000
2441 1 40.92330000 1.40117000 22.01920000
2442 2 41.39910000 0.27974900 21.89160000
2443 2 40.56760000 2.28372000 21.04200000
2444 2 40.63420000 1.98285000 23.26300000
2445 1 39.89150000 3.41956000 21.57070000
2446 1 40.08380000 3.24427000 23.03920000
2447 3 38.80870000 3.61367000 21.34760000
2448 3 40.36760000 4.37615000 21.26300000
2449 3 39.11910000 3.29864000 23.46110000
2450 3 40.76230000 3.94070000 23.54950000
2451 1 28.23220000 13.07680000 22.67560000
2452 2 27.65390000 12.47460000 23.60060000
2453 2 29.15510000 14.02700000 22.87600000
2454 2 28.19520000 12.74290000 21.40960000
2455 1 29.82810000 14.26620000 21.60140000
2456 1 28.99250000 13.54910000 20.55430000
2457 3 30.84230000 13.82930000 21.57980000
2458 3 29.86100000 15.28070000 21.35520000
2459 3 29.42850000 12.93550000 19.83260000
2460 3 28.17110000 14.20560000 20.11530000
2461 1 18.20550000 14.26320000 15.10170000
2462 2 17.35900000 14.97850000 14.54230000
2463 2 19.22740000 13.51320000 14.54010000
2464 2 18.18750000 14.17370000 16.37520000
2465 1 19.93690000 12.78880000 15.55340000
2466 1 19.19680000 13.22090000 16.80230000
2467 3 20.96630000 13.17500000 15.38040000
2468 3 19.95780000 11.72090000 15.37480000
2469 3 19.96100000 13.60820000 17.49920000
2470 3 18.70230000 12.42000000 17.23890000
2471 1 17.57230000 40.74310000 21.89940000
2472 2 18.57060000 41.20720000 22.43130000
2473 2 17.16340000 39.59600000 22.18260000
2474 2 16.78890000 41.28480000 21.01750000
2475 1 16.23340000 39.09510000 21.24240000
2476 1 15.80390000 40.37300000 20.55280000
2477 3 15.36310000 38.57640000 21.69730000
2478 3 16.77920000 38.50000000 20.49310000
2479 3 14.79120000 40.70810000 20.89290000
2480 3 15.83610000 40.13720000 19.56370000
2481 1 30.99130000 9.47733000 0.71759500
2482 2 30.89340000 8.37929000 1.24651000
2483 2 31.10780000 9.72344000 43.10910000
2484 2 31.24480000 10.53900000 1.39617000
2485 1 31.13510000 11.09680000 42.83720000
2486 1 31.74640000 11.52290000 0.49315100
2487 3 30.10070000 11.49210000 42.68990000
2488 3 31.63300000 11.39040000 41.93610000
2489 3 31.54740000 12.51350000 0.86762300
2490 3 32.85630000 11.43090000 0.33491400
2491 1 32.36370000 27.96660000 14.18780000
2492 2 32.67820000 28.22370000 15.35990000
2493 2 32.82350000 28.58180000 13.12870000
2494 2 31.55960000 27.00380000 13.83930000
2495 1 32.43880000 27.94900000 11.86100000
2496 1 31.31640000 26.95910000 12.40520000
2497 3 33.26200000 27.35400000 11.39570000
2498 3 32.02550000 28.68800000 11.14120000
2499 3 31.14290000 25.95230000 12.12170000
2500 3 30.31280000 27.45470000 12.23260000
2501 1 17.03760000 5.07891000 2.51149000
2502 2 16.00780000 5.63871000 2.10204000
2503 2 18.02980000 5.65216000 3.10828000
2504 2 17.10670000 3.74863000 2.61006000
2505 1 18.85730000 4.68633000 3.72444000
2506 1 18.46340000 3.43472000 2.96813000
2507 3 18.65180000 4.45512000 4.75725000
2508 3 19.89180000 4.84896000 3.49936000
2509 3 18.61570000 2.64466000 3.69842000
2510 3 19.08050000 3.36155000 2.13898000
2511 1 9.70740000 13.84050000 22.92570000
2512 2 9.11096000 13.33520000 23.87700000
2513 2 9.97119000 13.21300000 21.82680000
2514 2 10.22860000 15.06220000 22.90820000
2515 1 10.67110000 14.04330000 20.96320000
2516 1 10.81640000 15.41950000 21.69970000
2517 3 10.14570000 14.09620000 19.96910000
2518 3 11.68030000 13.58120000 20.83280000
2519 3 10.21510000 16.11400000 21.16560000
2520 3 11.75410000 15.88840000 21.95580000
2521 1 25.89260000 6.51599000 19.37900000
2522 2 26.11890000 7.46151000 18.62100000
2523 2 25.15390000 5.45655000 19.01550000
2524 2 26.17260000 6.48015000 20.61300000
2525 1 24.99630000 4.53676000 20.02110000
2526 1 25.81310000 5.20720000 21.16710000
2527 3 25.52710000 3.57957000 19.81530000
2528 3 23.99560000 4.35067000 20.39300000
2529 3 26.70340000 4.68322000 21.30540000
2530 3 25.27180000 5.40408000 22.10570000
2531 1 31.17910000 7.82551000 38.33950000
2532 2 30.67480000 7.18287000 37.39750000
2533 2 31.45790000 7.31298000 39.54870000
2534 2 31.68320000 8.99273000 38.24420000
2535 1 32.39250000 8.16876000 40.22210000
2536 1 32.26680000 9.47316000 39.41070000
2537 3 33.34960000 7.71311000 40.33080000
2538 3 32.04800000 8.29286000 41.25000000
2539 3 33.26020000 9.80459000 39.21940000
2540 3 31.72650000 10.23440000 39.86640000
2541 1 37.80770000 42.14270000 10.63260000
2542 2 37.26800000 42.93130000 11.43200000
2543 2 37.29080000 40.98340000 10.12810000
2544 2 39.01870000 42.32120000 10.07150000
2545 1 38.32490000 40.22830000 9.55730000
2546 1 39.30560000 41.26990000 9.13742000
2547 3 38.00790000 39.68500000 8.65733000
2548 3 38.68420000 39.45450000 10.19120000
2549 3 39.12720000 41.59210000 8.14190000
2550 3 40.35570000 41.04540000 9.25370000
2551 1 36.47820000 24.05030000 40.93290000
2552 2 35.52070000 23.75270000 41.63920000
2553 2 37.75110000 24.05970000 41.15820000
2554 2 36.28860000 24.50510000 39.64040000
2555 1 38.55930000 24.48190000 40.07210000
2556 1 37.51490000 25.02060000 39.13590000
2557 3 39.18030000 23.65240000 39.70680000
2558 3 39.20670000 25.30350000 40.43540000
2559 3 37.51520000 24.47770000 38.17600000
2560 3 37.59790000 26.07110000 39.01050000
2561 1 6.27303000 11.31190000 39.87510000
2562 2 6.64123000 11.57600000 41.00530000
2563 2 6.23909000 12.18140000 38.98930000
2564 2 5.86932000 10.16950000 39.40470000
2565 1 5.61874000 11.75640000 37.82860000
2566 1 5.61567000 10.28990000 37.99870000
2567 3 6.21686000 11.95890000 36.91310000
2568 3 4.54580000 12.10440000 37.79800000
2569 3 6.36729000 9.82166000 37.40680000
2570 3 4.64049000 9.79206000 37.83130000
2571 1 31.54310000 28.55190000 4.52434000
2572 2 31.69300000 28.06030000 5.60438000
2573 2 31.51880000 27.83770000 3.41730000
2574 2 31.38620000 29.83440000 4.29981000
2575 1 31.48790000 28.73930000 2.29786000
2576 1 30.91730000 29.97590000 2.98232000
2577 3 30.82520000 28.22860000 1.62189000
2578 3 32.37700000 28.93950000 1.78776000
2579 3 29.88320000 29.80120000 2.98650000
2580 3 31.20100000 30.90780000 2.50908000
2581 1 38.28810000 15.55230000 0.76699400
2582 2 38.99050000 14.60470000 1.18284000
2583 2 37.12300000 15.45140000 0.23159800
2584 2 38.60820000 16.80130000 0.94731000
2585 1 36.61980000 16.72790000 43.47460000
2586 1 37.58300000 17.71880000 0.48777400
2587 3 35.62530000 16.79050000 0.16257600
2588 3 36.68500000 16.93740000 42.40400000
2589 3 37.17700000 18.12680000 1.40543000
2590 3 38.07180000 18.38160000 43.46710000
2591 1 16.63500000 38.39390000 25.36780000
2592 2 15.58880000 37.80350000 25.28920000
2593 2 16.90160000 39.62370000 25.05940000
2594 2 17.69560000 37.86950000 25.90190000
2595 1 18.12620000 40.00210000 25.61500000
2596 1 18.83230000 38.68240000 25.82430000
2597 3 18.06970000 40.64310000 26.52280000
2598 3 18.64290000 40.58680000 24.88040000
2599 3 19.41540000 38.58580000 26.74560000
2600 3 19.35580000 38.52810000 24.89220000
2601 1 19.94030000 29.27560000 4.53287000
2602 2 20.50380000 30.26360000 5.04259000
2603 2 20.27460000 28.04640000 4.80612000
2604 2 18.80590000 29.26080000 3.81464000
2605 1 19.63030000 27.04260000 4.03305000
2606 1 18.37190000 27.87030000 3.72399000
2607 3 19.58460000 26.16670000 4.76792000
2608 3 20.29440000 26.84860000 3.18617000
2609 3 17.62200000 27.64780000 4.43496000
2610 3 17.98200000 27.81030000 2.69735000
2611 1 9.37005000 30.75200000 6.99005000
2612 2 8.14837000 30.88460000 7.08487000
2613 2 9.97457000 29.64890000 6.69512000
2614 2 10.27470000 31.71740000 7.03727000
2615 1 11.27720000 29.88070000 6.26041000
2616 1 11.56350000 31.25400000 6.97357000
2617 3 11.33150000 29.90050000 5.12053000
2618 3 11.96050000 29.09940000 6.68389000
2619 3 12.19910000 31.91200000 6.41622000
2620 3 11.90890000 30.97690000 7.91242000
2621 1 5.65238000 8.35657000 23.33100000
2622 2 6.31763000 8.93874000 24.17130000
2623 2 5.39228000 7.06109000 23.29350000
2624 2 5.00059000 8.93703000 22.28410000
2625 1 4.53022000 6.75719000 22.25160000
2626 1 3.99644000 8.06577000 21.76580000
2627 3 3.80904000 6.01020000 22.59070000
2628 3 5.18683000 6.28960000 21.45240000
2629 3 2.96779000 8.34865000 22.22900000
2630 3 3.88659000 8.08702000 20.72050000
2631 1 16.10570000 31.12150000 26.79680000
2632 2 16.34190000 31.66460000 25.70150000
2633 2 16.91240000 30.37080000 27.46790000
2634 2 14.97210000 31.17860000 27.37480000
2635 1 16.39110000 29.78770000 28.59680000
2636 1 15.04730000 30.44480000 28.60950000
2637 3 16.90750000 30.01040000 29.50070000
2638 3 16.38380000 28.73560000 28.29190000
2639 3 15.02380000 31.12040000 29.43560000
2640 3 14.19260000 29.77150000 28.68380000
2641 1 11.33170000 41.01570000 26.68040000
2642 2 10.09380000 41.14350000 26.67540000
2643 2 11.94350000 39.80120000 26.60670000
2644 2 12.20080000 41.95870000 26.75520000
2645 1 13.33790000 39.98230000 26.41090000
2646 1 13.51880000 41.46960000 26.96610000
2647 3 13.52740000 40.04720000 25.37360000
2648 3 13.99270000 39.26810000 26.82900000
2649 3 14.23030000 42.05920000 26.37980000
2650 3 13.64380000 41.52080000 28.07300000
2651 1 16.73930000 24.48140000 0.82703700
2652 2 15.65330000 24.85670000 1.17407000
2653 2 17.08440000 23.95160000 43.32270000
2654 2 17.90250000 24.60330000 1.50670000
2655 1 18.40220000 23.61720000 43.20090000
2656 1 18.97490000 23.92010000 0.86458600
2657 3 18.89320000 24.19740000 42.49440000
2658 3 18.47210000 22.59430000 42.83010000
2659 3 19.94950000 24.42090000 0.78362500
2660 3 19.15240000 22.98780000 1.47139000
2661 1 10.90970000 8.14582000 1.70385000
2662 2 10.98570000 7.20598000 0.95805400
2663 2 9.88884000 8.60829000 2.38970000
2664 2 11.94960000 8.95538000 1.87206000
2665 1 10.24440000 9.66856000 3.21611000
2666 1 11.68790000 9.99809000 2.83819000
2667 3 10.15500000 9.27678000 4.19053000
2668 3 9.50907000 10.48860000 3.11281000
2669 3 12.31910000 9.95888000 3.70124000
2670 3 11.82330000 10.90440000 2.29048000
2671 1 18.03180000 1.53611000 18.69970000
2672 2 18.53060000 0.42586400 18.50390000
2673 2 18.62950000 2.49637000 19.38600000
2674 2 16.80940000 1.90639000 18.38210000
2675 1 17.90140000 3.72152000 19.25870000
2676 1 16.54090000 3.27799000 18.64940000
2677 3 18.38190000 4.36643000 18.48330000
2678 3 17.67600000 4.28636000 20.19540000
2679 3 16.28760000 3.69776000 17.71470000
2680 3 15.73890000 3.49541000 19.29260000
2681 1 0.32853000 28.85300000 26.00230000
2682 2 1.21555000 29.33870000 25.27070000
2683 2 43.70370000 27.54450000 26.00540000
2684 2 43.24020000 29.52450000 26.84030000
2685 1 42.81270000 27.30480000 27.10080000
2686 1 42.24790000 28.69060000 27.45010000
2687 3 43.39160000 26.91560000 28.02680000
2688 3 42.04640000 26.72360000 26.91780000
2689 3 42.15300000 28.91110000 28.53240000
2690 3 41.36040000 28.85390000 26.95310000
2691 1 27.80470000 34.40640000 15.34300000
2692 2 28.63590000 33.79970000 14.69770000
2693 2 27.50170000 35.70650000 15.24940000
2694 2 26.95370000 33.85650000 16.18100000
2695 1 26.23290000 35.98230000 15.79960000
2696 1 25.90400000 34.77760000 16.59680000
2697 3 25.55150000 35.98240000 14.98540000
2698 3 26.15160000 36.89600000 16.32370000
2699 3 24.90410000 34.44070000 16.46040000
2700 3 25.96140000 35.01420000 17.66900000
2701 1 33.34720000 29.77300000 42.28280000
2702 2 33.18040000 28.71190000 41.66810000
2703 2 34.54440000 30.40680000 42.44490000
2704 2 32.44840000 30.38780000 42.98880000
2705 1 34.42430000 31.53700000 43.24870000
2706 1 32.92000000 31.63690000 43.49530000
2707 3 34.84340000 32.48320000 42.89340000
2708 3 34.86360000 31.38790000 0.56120200
2709 3 32.55920000 32.57490000 42.99300000
2710 3 32.64930000 31.71040000 0.81688600
2711 1 5.59103000 2.88351000 7.02382000
2712 2 5.83791000 1.74546000 7.28764000
2713 2 4.63122000 3.40163000 6.20615000
2714 2 6.29901000 3.88697000 7.54030000
2715 1 4.71498000 4.82015000 6.06410000
2716 1 5.79241000 5.08555000 7.08514000
2717 3 3.79799000 5.38676000 6.42880000
2718 3 5.01882000 5.08603000 5.03581000
2719 3 5.55128000 5.70427000 7.94414000
2720 3 6.60465000 5.75822000 6.65529000
2721 1 30.55920000 37.33470000 40.48430000
2722 2 29.51950000 36.88320000 40.04590000
2723 2 31.33240000 36.81960000 41.49790000
2724 2 31.28040000 38.25820000 39.95290000
2725 1 32.44320000 37.68930000 41.84080000
2726 1 32.40240000 38.64570000 40.73580000
2727 3 33.41490000 37.21720000 41.94410000
2728 3 32.23360000 38.25020000 42.70340000
2729 3 33.22710000 38.62010000 40.05200000
2730 3 32.22180000 39.66100000 41.14030000
2731 1 8.63408000 22.62850000 37.40920000
2732 2 7.72722000 23.30270000 36.86670000
2733 2 9.14777000 22.88970000 38.59670000
2734 2 9.35175000 21.85590000 36.73710000
2735 1 10.21040000 22.03660000 38.82130000
2736 1 10.52740000 21.51400000 37.45260000
2737 3 10.09630000 21.25710000 39.51510000
2738 3 11.14740000 22.60220000 39.12970000
2739 3 10.51890000 20.48080000 37.53820000
2740 3 11.51270000 21.79090000 37.03530000
2741 1 9.09019000 0.19879600 29.10290000
2742 2 10.16060000 43.47100000 29.32930000
2743 2 8.78562000 1.43508000 29.04480000
2744 2 8.10234000 43.12050000 28.80900000
2745 1 7.45320000 1.61578000 28.57850000
2746 1 6.94168000 43.86820000 28.51450000
2747 3 7.54119000 2.02571000 27.58660000
2748 3 6.83545000 2.32430000 29.17660000
2749 3 6.64205000 43.62510000 27.55960000
2750 3 6.07426000 43.70250000 29.19620000
2751 1 27.11540000 4.57409000 25.00660000
2752 2 27.30240000 5.03004000 23.90500000
2753 2 28.03050000 4.37025000 25.88660000
2754 2 25.97380000 4.43973000 25.61720000
2755 1 27.59710000 4.15338000 27.15600000
2756 1 26.10900000 4.01235000 26.94980000
2757 3 27.82530000 5.08344000 27.68460000
2758 3 28.14550000 3.29806000 27.58500000
2759 3 25.63960000 4.73586000 27.67010000
2760 3 25.60910000 3.06852000 26.90650000
2761 1 38.37080000 8.76808000 38.96310000
2762 2 39.00070000 9.03931000 37.99760000
2763 2 38.21260000 7.53591000 39.41110000
2764 2 37.86780000 9.60976000 39.79110000
2765 1 37.81070000 7.46277000 40.77640000
2766 1 37.21790000 8.89069000 40.88510000
2767 3 38.62990000 7.36773000 41.45750000
2768 3 37.01910000 6.74085000 40.95030000
2769 3 37.28690000 9.57577000 41.77940000
2770 3 36.18470000 8.77380000 40.50470000
2771 1 10.16970000 37.65240000 16.53860000
2772 2 10.62880000 36.53970000 16.30980000
2773 2 9.60258000 37.90460000 17.70690000
2774 2 10.12800000 38.75780000 15.78140000
2775 1 8.96493000 39.18180000 17.72450000
2776 1 9.61437000 39.81140000 16.49630000
2777 3 9.04846000 39.80050000 18.61510000
2778 3 7.95854000 39.01120000 17.43530000
2779 3 10.33930000 40.59440000 16.59580000
2780 3 8.84665000 40.23450000 15.94410000
2781 1 26.42790000 0.60449200 12.02620000
2782 2 26.29550000 43.82130000 13.11240000
2783 2 27.07090000 43.83730000 10.99780000
2784 2 26.21270000 1.90419000 11.74230000
2785 1 27.40270000 1.12368000 10.04340000
2786 1 26.53620000 2.25136000 10.46040000
2787 3 27.22750000 0.77451800 9.02657000
2788 3 28.50430000 1.33086000 10.11020000
2789 3 25.68010000 2.20526000 9.75264000
2790 3 27.03640000 3.14676000 10.39530000
2791 1 17.15070000 14.12680000 30.42280000
2792 2 16.20600000 14.87680000 30.65180000
2793 2 17.77260000 13.42840000 31.37020000
2794 2 17.76150000 13.93980000 29.31110000
2795 1 18.96490000 12.83580000 30.90760000
2796 1 18.76420000 12.95650000 29.41960000
2797 3 18.92600000 11.84560000 31.23820000
2798 3 19.94450000 13.26920000 31.29930000
2799 3 18.52170000 12.00660000 28.98000000
2800 3 19.72510000 13.26820000 28.99420000
2801 1 21.78740000 12.15280000 26.91520000
2802 2 21.54130000 12.65520000 27.99970000
2803 2 22.94450000 11.60650000 26.63740000
2804 2 20.93950000 11.96740000 25.91350000
2805 1 22.91770000 11.02860000 25.33360000
2806 1 21.45950000 11.13880000 24.92620000
2807 3 23.31810000 10.08260000 25.35080000
2808 3 23.43380000 11.53670000 24.48530000
2809 3 20.89970000 10.22560000 25.01510000
2810 3 21.28210000 11.51500000 23.88640000
2811 1 7.28959000 18.92780000 37.78680000
2812 2 8.05329000 19.34110000 38.66250000
2813 2 7.42865000 19.18700000 36.52470000
2814 2 6.22441000 18.11640000 37.97350000
2815 1 6.16742000 18.93190000 35.93480000
2816 1 5.56888000 17.79180000 36.76290000
2817 3 6.12572000 18.61930000 34.93550000
2818 3 5.55322000 19.75990000 35.96440000
2819 3 5.84833000 16.83670000 36.35320000
2820 3 4.47357000 17.90130000 36.73310000
2821 1 42.96740000 32.57410000 8.18636000
2822 2 42.48030000 32.51870000 7.05268000
2823 2 42.27670000 32.29690000 9.34449000
2824 2 0.56732800 32.81920000 8.43776000
2825 1 43.28080000 32.22180000 10.35700000
2826 1 0.79885900 33.02600000 9.85345000
2827 3 43.56300000 31.21920000 10.40280000
2828 3 43.04600000 32.61020000 11.42490000
2829 3 1.73359000 32.67760000 10.30790000
2830 3 0.74533500 34.05500000 10.10280000
2831 1 1.49798000 21.15870000 6.22807000
2832 2 2.34278000 21.67680000 6.99884000
2833 2 1.67537000 20.08460000 5.46855000
2834 2 0.24288600 21.53650000 6.17985000
2835 1 0.55355600 19.82870000 4.60387000
2836 1 43.19200000 20.65950000 5.37801000
2837 3 0.32395400 18.78550000 4.36748000
2838 3 0.84172200 20.24290000 3.65242000
2839 3 42.50140000 20.06150000 5.99291000
2840 3 42.55870000 21.23330000 4.71249000
2841 1 5.11614000 5.20127000 13.29660000
2842 2 5.33438000 4.41161000 14.20170000
2843 2 4.45228000 4.95496000 12.19170000
2844 2 5.43398000 6.49716000 13.27620000
2845 1 4.15490000 6.08068000 11.49200000
2846 1 5.18384000 7.06107000 12.00340000
2847 3 3.16629000 6.41764000 11.79080000
2848 3 4.26373000 6.11792000 10.40030000
2849 3 4.86077000 8.09747000 12.09180000
2850 3 6.06295000 7.08766000 11.45280000
2851 1 36.72900000 15.74310000 21.07150000
2852 2 37.87420000 15.69440000 20.68400000
2853 2 35.84380000 14.77490000 20.73980000
2854 2 36.11360000 16.76130000 21.62440000
2855 1 34.64530000 15.08900000 21.34080000
2856 1 34.73830000 16.59150000 21.57470000
2857 3 34.45380000 14.45430000 22.18310000
2858 3 33.80890000 14.80080000 20.65880000
2859 3 34.24560000 17.04650000 22.41500000
2860 3 34.38510000 17.04850000 20.61880000
2861 1 28.55490000 37.02290000 18.93190000
2862 2 27.98930000 36.03800000 19.39980000
2863 2 28.04510000 37.83980000 17.93230000
2864 2 29.84090000 37.41860000 19.18500000
2865 1 28.98590000 38.88530000 17.57760000
2866 1 30.15060000 38.64040000 18.54530000
2867 3 28.58340000 39.84100000 17.77240000
2868 3 29.26230000 38.70250000 16.56670000
2869 3 30.40800000 39.52330000 19.20780000
2870 3 31.05540000 38.40100000 18.00070000
2871 1 6.41232000 14.24050000 0.82414500
2872 2 7.46518000 14.29250000 1.40194000
2873 2 5.27851000 13.95850000 1.29287000
2874 2 6.24526000 14.81000000 43.33650000
2875 1 4.17304000 14.35700000 0.53449400
2876 1 4.90503000 14.82710000 42.94800000
2877 3 3.46880000 15.10160000 1.03775000
2878 3 3.53663000 13.53340000 0.27590800
2879 3 4.58581000 15.78770000 42.69160000
2880 3 4.86763000 14.15810000 42.10270000
2881 1 6.41840000 42.60560000 33.16510000
2882 2 6.50582000 42.71390000 31.92460000
2883 2 7.12645000 41.79200000 33.86860000
2884 2 5.69824000 43.36350000 33.93830000
2885 1 6.96384000 41.95070000 35.23920000
2886 1 5.71699000 42.85650000 35.29910000
2887 3 7.84910000 42.40810000 35.70060000
2888 3 6.88398000 41.05940000 35.80190000
2889 3 5.93438000 43.67960000 35.97840000
2890 3 4.86468000 42.22850000 35.63840000
2891 1 21.07500000 35.19500000 37.88070000
2892 2 21.53850000 34.26340000 37.18180000
2893 2 21.63100000 35.67360000 39.02920000
2894 2 20.04510000 35.91470000 37.56570000
2895 1 21.00070000 36.88900000 39.53140000
2896 1 19.70250000 36.83790000 38.60300000
2897 3 21.63720000 37.74780000 39.25160000
2898 3 20.82610000 36.92800000 40.60860000
2899 3 19.47810000 37.82440000 38.24600000
2900 3 18.92180000 36.45330000 39.24370000
2901 1 18.38360000 9.16262000 39.13020000
2902 2 17.94610000 9.22722000 37.94650000
2903 2 18.48200000 10.20580000 39.86500000
2904 2 18.39260000 8.03952000 39.80070000
2905 1 18.75940000 9.81162000 41.19770000
2906 1 18.91190000 8.28849000 41.03910000
2907 3 17.78970000 10.13260000 41.66350000
2908 3 19.60020000 10.34430000 41.61060000
2909 3 18.40240000 7.62034000 41.69840000
2910 3 20.01030000 8.06940000 41.23290000
2911 1 30.25590000 15.69340000 8.30101000
2912 2 30.16530000 16.19910000 9.38651000
2913 2 29.21570000 15.25480000 7.52962000
2914 2 31.38170000 15.55030000 7.73416000
2915 1 29.72200000 14.78450000 6.32083000
2916 1 31.22470000 15.10020000 6.46377000
2917 3 29.35800000 15.45100000 5.52737000
2918 3 29.43380000 13.78490000 6.00140000
2919 3 31.63540000 15.87610000 5.73820000
2920 3 31.83130000 14.19920000 6.36373000
2921 1 18.74200000 24.02980000 25.91880000
2922 2 17.81630000 24.78840000 25.68360000
2923 2 20.00560000 24.45310000 25.90920000
2924 2 18.59810000 22.75310000 26.19140000
2925 1 20.80310000 23.28600000 26.27030000
2926 1 19.76790000 22.30960000 26.67090000
2927 3 21.64200000 23.44690000 26.96630000
2928 3 21.39810000 22.80710000 25.41880000
2929 3 19.78540000 22.10350000 27.72310000
2930 3 20.04880000 21.38240000 26.25230000
2931 1 26.21720000 15.54390000 2.33829000
2932 2 26.38570000 16.44750000 1.56917000
2933 2 26.04620000 14.22110000 2.01176000
2934 2 26.12200000 15.63240000 3.60171000
2935 1 26.24740000 13.39080000 3.10674000
2936 1 25.94580000 14.37480000 4.21828000
2937 3 27.28980000 13.14320000 3.12940000
2938 3 25.67070000 12.43490000 3.15978000
2939 3 26.83490000 14.25210000 4.88164000
2940 3 24.95960000 14.20570000 4.67743000
2941 1 3.16814000 4.08144000 25.77550000
2942 2 2.79002000 4.50097000 24.65840000
2943 2 3.34205000 4.82702000 26.89680000
2944 2 3.54643000 2.87339000 26.00990000
2945 1 3.78136000 3.95752000 27.95570000
2946 1 3.69941000 2.57593000 27.30320000
2947 3 3.05020000 4.00223000 28.78580000
2948 3 4.80156000 4.20785000 28.25370000
2949 3 2.95452000 1.94827000 27.68130000
2950 3 4.63430000 2.07133000 27.33340000
2951 1 28.56950000 19.40510000 5.20897000
2952 2 29.33960000 18.48150000 5.12950000
2953 2 28.01950000 20.11430000 4.24870000
2954 2 28.38970000 20.05450000 6.39526000
2955 1 27.20080000 21.22080000 4.77659000
2956 1 27.61990000 21.21370000 6.26272000
2957 3 26.15440000 20.96000000 4.61322000
2958 3 27.45160000 22.13450000 4.24347000
2959 3 26.76710000 21.11240000 6.92198000
2960 3 28.01640000 22.23000000 6.56108000
2961 1 6.72750000 41.59280000 3.76520000
2962 2 7.80472000 41.74310000 3.24660000
2963 2 5.99878000 40.49260000 3.73230000
2964 2 6.00117000 42.59760000 4.30685000
2965 1 4.60178000 40.80560000 4.03255000
2966 1 4.71676000 42.13910000 4.68821000
2967 3 4.10836000 40.11330000 4.68152000
2968 3 3.95060000 40.81420000 3.09748000
2969 3 4.43850000 42.17430000 5.76744000
2970 3 3.89398000 42.66540000 4.19933000
2971 1 22.98180000 6.15698000 26.71400000
2972 2 23.05640000 5.83978000 27.91050000
2973 2 23.25390000 5.38851000 25.60840000
2974 2 22.78920000 7.38879000 26.23620000
2975 1 23.26390000 6.09602000 24.36560000
2976 1 22.79660000 7.47416000 24.83320000
2977 3 22.59790000 5.76302000 23.55240000
2978 3 24.18960000 6.21032000 23.89090000
2979 3 21.86910000 7.81283000 24.41100000
2980 3 23.55670000 8.11496000 24.42930000
2981 1 0.97503600 17.27000000 30.50430000
2982 2 0.60364600 16.55790000 29.57040000
2983 2 1.93727000 16.96770000 31.25640000
2984 2 0.34598200 18.28200000 31.00390000
2985 1 2.17182000 18.02130000 32.24000000
2986 1 0.73469000 18.52350000 32.35770000
2987 3 2.93236000 18.66500000 31.82120000
2988 3 2.57287000 17.71760000 33.21370000
2989 3 0.46399100 19.56390000 32.67910000
2990 3 43.89630000 17.90670000 32.98340000
2991 1 43.42670000 14.06250000 3.25842000
2992 2 0.70204400 14.08750000 2.54112000
2993 2 42.27460000 13.48570000 2.92049000
2994 2 43.27190000 14.76720000 4.37936000
2995 1 41.26030000 13.91410000 3.84084000
2996 1 42.01520000 14.45350000 5.04202000
2997 3 40.67900000 13.00340000 4.13818000
2998 3 40.53860000 14.58640000 3.50151000
2999 3 42.14350000 13.66220000 5.83128000
3000 3 41.58760000 15.32510000 5.51656000
3001 1 10.78510000 2.17161000 0.86945600
3002 2 10.66390000 0.95132000 0.97599400
3003 2 10.08470000 2.96432000 43.80500000
3004 2 11.70290000 2.90183000 1.53542000
3005 1 10.33150000 4.33140000 0.46365600
3006 1 11.68340000 4.23449000 1.11675000
3007 3 9.59771000 4.51642000 1.26032000
3008 3 10.17430000 5.04767000 43.42570000
3009 3 11.70840000 4.87730000 1.94519000
3010 3 12.53150000 4.32427000 0.40551600
3011 1 7.62757000 7.06218000 38.38090000
3012 2 7.88527000 7.25138000 37.19710000
3013 2 6.42602000 7.22608000 38.94550000
3014 2 8.48590000 6.65382000 39.28930000
3015 1 6.43827000 6.80530000 40.30500000
3016 1 7.94257000 6.67002000 40.54530000
3017 3 5.80288000 5.94894000 40.36970000
3018 3 6.05074000 7.49866000 41.04850000
3019 3 8.18235000 5.74064000 41.06760000
3020 3 8.52018000 7.52513000 40.92410000
3021 1 27.76860000 25.70740000 34.80580000
3022 2 27.99650000 25.93710000 35.97450000
3023 2 28.61930000 25.80120000 33.90710000
3024 2 26.56070000 25.43460000 34.28420000
3025 1 27.99690000 25.48860000 32.64750000
3026 1 26.53990000 25.60170000 32.86140000
3027 3 28.21840000 24.46700000 32.32200000
3028 3 28.26940000 26.23990000 31.85080000
3029 3 25.93740000 24.92080000 32.29480000
3030 3 26.08910000 26.60210000 32.64720000
3031 1 43.39580000 1.56439000 25.47830000
3032 2 43.42590000 2.25522000 24.50620000
3033 2 0.72818200 1.09463000 26.12700000
3034 2 42.34560000 1.20510000 26.18300000
3035 1 0.37225000 0.36939200 27.27670000
3036 1 42.60860000 0.44431600 27.36670000
3037 3 0.80853600 0.67855900 28.19020000
3038 3 0.59919800 43.01860000 27.11170000
3039 3 42.23340000 0.95536700 28.29200000
3040 3 42.15130000 43.12020000 27.28260000
3041 1 16.07690000 32.53670000 10.63270000
3042 2 15.70780000 31.85320000 11.58350000
3043 2 16.99980000 33.36230000 10.72470000
3044 2 15.45860000 32.55440000 9.41854000
3045 1 16.99760000 34.25290000 9.58081000
3046 1 16.02210000 33.58120000 8.62186000
3047 3 18.06310000 34.32060000 9.25560000
3048 3 16.68120000 35.28910000 9.90071000
3049 3 16.52650000 33.19650000 7.70196000
3050 3 15.25870000 34.25750000 8.25440000
3051 1 27.90530000 39.03630000 13.06070000
3052 2 28.82180000 38.34870000 12.64200000
3053 2 28.01360000 39.90460000 14.07270000
3054 2 26.73550000 39.05750000 12.50800000
3055 1 26.86870000 40.76510000 14.10070000
3056 1 26.01220000 40.06070000 13.16100000
3057 3 27.15120000 41.67530000 13.59050000
3058 3 26.45780000 40.94500000 15.09610000
3059 3 25.77400000 40.75430000 12.37880000
3060 3 25.15720000 39.55510000 13.59710000
3061 1 12.73030000 6.63722000 22.55570000
3062 2 12.98470000 7.51418000 21.75430000
3063 2 11.54730000 6.54811000 23.14570000
3064 2 13.65330000 5.75799000 23.03670000
3065 1 11.56940000 5.39030000 24.00170000
3066 1 13.01610000 5.00304000 24.06690000
3067 3 10.97440000 4.61114000 23.58770000
3068 3 11.18260000 5.56860000 24.99110000
3069 3 13.20500000 3.94954000 24.06800000
3070 3 13.43300000 5.24766000 25.03550000
3071 1 18.02280000 41.40120000 36.75950000
3072 2 18.99820000 42.00030000 36.28840000
3073 2 17.95050000 40.14000000 36.80430000
3074 2 16.93790000 41.97780000 37.18480000
3075 1 16.66770000 39.66530000 37.13460000
3076 1 16.07810000 40.95960000 37.70980000
3077 3 16.83260000 38.85810000 37.91710000
3078 3 16.24290000 39.32760000 36.25010000
3079 3 16.13660000 40.76990000 38.75340000
3080 3 15.08720000 41.13990000 37.39690000
3081 1 35.05690000 25.25440000 1.13642000
3082 2 35.43890000 24.63230000 2.09966000
3083 2 35.70840000 26.06060000 0.43570400
3084 2 33.80610000 25.19720000 0.69328400
3085 1 34.88320000 26.69660000 43.21000000
3086 1 33.57360000 25.95950000 43.26500000
3087 3 35.30310000 26.75070000 42.20750000
3088 3 34.80000000 27.74930000 43.47740000
3089 3 33.45440000 25.33630000 42.43300000
3090 3 32.70510000 26.55940000 43.41760000
3091 1 43.04970000 32.05300000 39.02700000
3092 2 43.61540000 32.78940000 38.26580000
3093 2 42.87440000 30.75830000 38.91230000
3094 2 42.50500000 32.46880000 40.16750000
3095 1 42.15300000 30.24630000 40.02740000
3096 1 42.01170000 31.39730000 41.00980000
3097 3 42.54140000 29.35650000 40.52260000
3098 3 41.08480000 30.09470000 39.68100000
3099 3 42.56460000 31.22610000 41.90290000
3100 3 40.95720000 31.58520000 41.21990000
3101 1 17.78450000 1.45470000 28.99590000
3102 2 18.00690000 2.51374000 29.60610000
3103 2 17.92190000 1.29551000 27.64960000
3104 2 17.27060000 0.38443900 29.43830000
3105 1 17.30130000 43.82170000 27.23990000
3106 1 17.14610000 42.94880000 28.47120000
3107 3 17.82350000 43.40060000 26.39040000
3108 3 16.33210000 0.41588400 26.78890000
3109 3 17.96020000 42.12600000 28.51960000
3110 3 16.21650000 42.49510000 28.45650000
3111 1 7.68921000 15.63890000 26.14960000
3112 2 7.69238000 15.13090000 27.30780000
3113 2 8.65511000 16.08170000 25.41560000
3114 2 6.63912000 15.78500000 25.46160000
3115 1 8.21388000 16.98960000 24.42830000
3116 1 6.90215000 16.32900000 24.20850000
3117 3 8.82361000 17.13640000 23.52790000
3118 3 8.10809000 18.00650000 24.88190000
3119 3 7.03111000 15.55310000 23.45390000
3120 3 6.06361000 16.86980000 23.77240000
3121 1 43.40260000 6.02666000 39.24840000
3122 2 0.21835300 5.04733000 38.65040000
3123 2 0.28231900 7.07166000 39.81930000
3124 2 42.12970000 6.13182000 39.59620000
3125 1 43.02870000 8.06802000 40.27090000
3126 1 41.69240000 7.32068000 40.18090000
3127 3 42.93740000 8.95088000 39.69360000
3128 3 43.30590000 8.37858000 41.28580000
3129 3 40.84680000 7.82650000 39.62340000
3130 3 41.27300000 7.03543000 41.13700000
3131 1 10.92070000 40.57360000 6.82843000
3132 2 11.37420000 41.68070000 7.16377000
3133 2 11.55280000 39.40010000 6.89563000
3134 2 9.82625000 40.37490000 6.24601000
3135 1 10.86980000 38.27560000 6.31369000
3136 1 9.52663000 38.97050000 6.00371000
3137 3 10.73170000 37.47480000 7.09688000
3138 3 11.40260000 37.93780000 5.36506000
3139 3 8.71128000 38.52730000 6.72540000
3140 3 9.24710000 38.91310000 4.91489000
3141 1 12.98710000 4.65790000 18.53830000
3142 2 13.93820000 5.30095000 18.11600000
3143 2 11.81220000 4.41490000 17.93870000
3144 2 12.90400000 4.14541000 19.73510000
3145 1 10.84040000 3.86603000 18.80600000
3146 1 11.75040000 3.43316000 19.90190000
3147 3 10.31860000 3.03941000 18.31490000
3148 3 10.05840000 4.56869000 19.12930000
3149 3 11.93680000 2.36876000 19.78030000
3150 3 11.34710000 3.66984000 20.82780000
3151 1 33.83150000 28.35260000 18.67230000
3152 2 34.32120000 27.23330000 18.67900000
3153 2 32.86430000 28.63780000 19.48760000
3154 2 34.27160000 29.41030000 18.11070000
3155 1 32.57740000 30.02060000 19.43370000
3156 1 33.36680000 30.46580000 18.22980000
3157 3 33.17750000 30.52550000 20.26290000
3158 3 31.57440000 30.28250000 19.47210000
3159 3 33.89960000 31.45460000 18.22430000
3160 3 32.61160000 30.44690000 17.46600000
3161 1 11.79270000 8.05143000 27.40990000
3162 2 12.29560000 7.74093000 26.41470000
3163 2 10.48150000 8.26312000 27.57620000
3164 2 12.37330000 8.26184000 28.60130000
3165 1 10.24630000 8.93491000 28.81300000
3166 1 11.51140000 8.68732000 29.61910000
3167 3 9.33788000 8.50856000 29.36910000
3168 3 10.19080000 10.02190000 28.71610000
3169 3 11.25210000 7.79925000 30.20610000
3170 3 11.94770000 9.54446000 30.16600000
3171 1 12.53080000 30.64110000 35.55870000
3172 2 13.42070000 31.14780000 36.21870000
3173 2 11.55150000 29.83130000 36.08640000
3174 2 12.34060000 30.77020000 34.31920000
3175 1 10.85600000 29.13400000 35.07720000
3176 1 11.26670000 29.99000000 33.88620000
3177 3 9.87149000 29.13460000 35.46130000
3178 3 11.21700000 28.09020000 35.06210000
3179 3 10.45670000 30.76130000 33.71410000
3180 3 11.37790000 29.38140000 32.97370000
3181 1 31.75150000 5.03449000 25.21650000
3182 2 31.97280000 6.13575000 24.70440000
3183 2 31.41840000 3.97554000 24.48570000
3184 2 31.72660000 4.67473000 26.51510000
3185 1 31.14100000 2.83976000 25.22190000
3186 1 31.38500000 3.31695000 26.68190000
3187 3 31.60400000 1.91975000 24.94540000
3188 3 30.14760000 2.65076000 24.97720000
3189 3 32.27870000 2.83440000 27.00040000
3190 3 30.52330000 3.14915000 27.37780000
3191 1 10.85120000 38.37290000 20.98110000
3192 2 10.47910000 37.23440000 20.75280000
3193 2 10.02730000 39.49510000 20.90240000
3194 2 11.89290000 38.69500000 21.65280000
3195 1 10.62070000 40.62020000 21.54950000
3196 1 12.03190000 40.07650000 21.66050000
3197 3 10.30100000 40.78280000 22.54330000
3198 3 10.50100000 41.53070000 20.95120000
3199 3 12.67410000 40.43940000 22.45160000
3200 3 12.51770000 40.37340000 20.78050000
3201 1 7.42034000 32.46400000 16.33710000
3202 2 6.50263000 31.67930000 16.43880000
3203 2 7.74414000 33.27500000 15.29010000
3204 2 8.41411000 32.65570000 17.21440000
3205 1 8.98639000 33.95550000 15.54180000
3206 1 9.32627000 33.72770000 16.95980000
3207 3 8.81064000 35.02350000 15.26250000
3208 3 9.64806000 33.46230000 14.88310000
3209 3 9.08789000 34.63470000 17.53040000
3210 3 10.34440000 33.53850000 17.21360000
3211 1 21.03040000 6.00604000 15.10390000
3212 2 20.58380000 6.11539000 13.94990000
3213 2 21.84560000 5.05631000 15.40800000
3214 2 20.78370000 6.76350000 16.17250000
3215 1 21.97290000 4.84480000 16.80960000
3216 1 21.39710000 6.25644000 17.34250000
3217 3 23.02300000 4.74888000 17.15770000
3218 3 21.29080000 4.07971000 17.16360000
3219 3 22.19010000 6.88835000 17.72700000
3220 3 20.63700000 6.05503000 18.13840000
3221 1 27.88850000 16.52870000 18.53890000
3222 2 28.60380000 15.69810000 17.99060000
3223 2 26.51850000 16.67620000 18.38900000
3224 2 28.31150000 17.46340000 19.33240000
3225 1 25.97280000 17.65350000 19.28700000
3226 1 27.26900000 18.26400000 19.80370000
3227 3 25.48790000 17.10790000 20.15370000
3228 3 25.53930000 18.39230000 18.65060000
3229 3 27.17050000 18.40180000 20.82530000
3230 3 27.20390000 19.23700000 19.36070000
3231 1 15.72600000 42.26780000 8.26602000
3232 2 16.18060000 42.48410000 9.31036000
3233 2 15.31620000 43.17210000 7.34012000
3234 2 15.36230000 41.08400000 7.82532000
3235 1 14.61960000 42.55720000 6.27193000
3236 1 14.88260000 41.06910000 6.47690000
3237 3 14.89620000 42.96120000 5.27561000
3238 3 13.62070000 42.87920000 6.35800000
3239 3 15.73630000 40.75990000 5.84404000
3240 3 14.07010000 40.37410000 6.35735000
3241 1 12.71570000 21.49490000 13.23120000
3242 2 12.15790000 20.64160000 12.57210000
3243 2 13.52500000 22.37280000 12.70340000
3244 2 12.48650000 21.79580000 14.48320000
3245 1 13.67910000 23.44140000 13.55060000
3246 1 13.28130000 22.91200000 14.90260000
3247 3 13.00880000 24.26480000 13.31840000
3248 3 14.72810000 23.86690000 13.55030000
3249 3 12.69030000 23.65410000 15.48860000
3250 3 14.18680000 22.65720000 15.50100000
3251 1 25.88640000 24.46700000 6.18992000
3252 2 25.97210000 24.78110000 5.00614000
3253 2 26.84940000 24.18950000 6.95488000
3254 2 24.73260000 24.46890000 6.89480000
3255 1 26.47020000 23.81070000 8.27339000
3256 1 24.97260000 24.15990000 8.30611000
3257 3 27.06200000 24.35280000 9.07396000
3258 3 26.75710000 22.74180000 8.54468000
3259 3 24.70690000 25.10650000 8.77800000
3260 3 24.33050000 23.32170000 8.61381000
3261 1 34.28540000 39.61420000 23.61320000
3262 2 33.40970000 39.67950000 22.73850000
3263 2 35.60160000 39.63740000 23.43530000
3264 2 34.06610000 39.61700000 24.96700000
3265 1 36.36270000 39.79780000 24.54060000
3266 1 35.33730000 39.40050000 25.53170000
3267 3 36.57500000 40.86040000 24.70180000
3268 3 37.24700000 39.16570000 24.61480000
3269 3 35.41700000 39.89160000 26.58840000
3270 3 35.54770000 38.37140000 25.74010000
3271 1 31.43450000 15.56810000 2.81976000
3272 2 32.21220000 14.60480000 3.21236000
3273 2 31.77680000 16.55470000 2.11489000
3274 2 30.12990000 15.64200000 3.16687000
3275 1 30.68880000 17.47540000 2.07332000
3276 1 29.53790000 16.52740000 2.31606000
3277 3 30.54730000 18.12020000 1.18095000
3278 3 30.78640000 18.22030000 2.79904000
3279 3 29.26290000 16.02170000 1.43879000
3280 3 28.69430000 16.95050000 2.77821000
3281 1 7.49077000 37.97320000 29.04820000
3282 2 7.64318000 36.73620000 29.08980000
3283 2 8.34907000 38.89120000 28.53470000
3284 2 6.35618000 38.65160000 29.48210000
3285 1 7.96924000 40.17730000 28.95220000
3286 1 6.55398000 40.00960000 29.31480000
3287 3 8.21646000 40.73990000 28.07890000
3288 3 8.56699000 40.55810000 29.80730000
3289 3 5.95769000 40.31950000 28.45880000
3290 3 6.23501000 40.45270000 30.20830000
3291 1 1.62836000 17.71490000 14.65010000
3292 2 2.40447000 18.17340000 15.46490000
3293 2 1.96498000 16.90350000 13.61310000
3294 2 0.33437100 17.96060000 14.58770000
3295 1 0.88754600 16.65460000 12.75300000
3296 1 43.43660000 17.55860000 13.31480000
3297 3 0.69000400 15.60100000 12.74950000
3298 3 1.05976000 16.81520000 11.65190000
3299 3 42.43720000 17.02720000 13.46770000
3300 3 43.26040000 18.36680000 12.68590000
3301 1 21.97770000 37.44730000 28.03350000
3302 2 21.08270000 38.18100000 28.47480000
3303 2 22.20890000 37.05800000 26.77600000
3304 2 22.95320000 36.93050000 28.75430000
3305 1 23.28490000 36.18100000 26.60990000
3306 1 23.73470000 35.97000000 27.99670000
3307 3 23.97560000 36.59250000 25.90930000
3308 3 22.77000000 35.34300000 26.26310000
3309 3 24.78340000 36.08900000 28.14920000
3310 3 23.55650000 34.95740000 28.32480000
3311 1 35.60450000 22.49180000 27.80130000
3312 2 34.52040000 22.93050000 27.40920000
3313 2 36.72850000 22.86670000 27.30890000
3314 2 35.69200000 21.57950000 28.65940000
3315 1 37.73850000 22.06880000 27.82900000
3316 1 37.00130000 21.32300000 28.94880000
3317 3 38.62730000 22.63810000 28.12790000
3318 3 37.87530000 21.31170000 27.06420000
3319 3 37.28310000 21.67670000 29.89140000
3320 3 37.29010000 20.26540000 28.95250000
3321 1 11.25200000 8.75314000 39.06660000
3322 2 11.53830000 7.88818000 38.27890000
3323 2 10.91180000 8.61326000 40.38560000
3324 2 11.26850000 10.06240000 38.77660000
3325 1 10.33530000 9.75751000 40.80380000
3326 1 10.89170000 10.82910000 39.88470000
3327 3 10.50840000 10.00640000 41.84990000
3328 3 9.31888000 9.62837000 40.48430000
3329 3 11.66110000 11.42830000 40.25500000
3330 3 10.05030000 11.43750000 39.55520000
3331 1 3.02721000 39.67790000 31.34490000
3332 2 3.07976000 38.47600000 31.67920000
3333 2 4.08917000 40.51300000 31.39600000
3334 2 1.88986000 40.33910000 30.97720000
3335 1 3.61948000 41.81250000 31.15580000
3336 1 2.13333000 41.76650000 30.71130000
3337 3 4.21496000 42.35390000 30.44840000
3338 3 3.83762000 42.47010000 32.01680000
3339 3 1.96265000 41.80660000 29.66310000
3340 3 1.45621000 42.44990000 31.16060000
3341 1 43.66240000 12.29690000 15.99360000
3342 2 1.02468000 12.00310000 16.55390000
3343 2 42.49190000 11.64350000 16.13210000
3344 2 43.53400000 13.23060000 15.00350000
3345 1 41.49060000 12.10840000 15.19010000
3346 1 42.22810000 13.23090000 14.41480000
3347 3 40.60300000 12.51070000 15.73420000
3348 3 41.24000000 11.32420000 14.42890000
3349 3 41.62550000 14.06110000 14.37300000
3350 3 42.54910000 12.85490000 13.42060000
3351 1 0.43021900 31.24060000 30.16810000
3352 2 43.37090000 30.78250000 30.99460000
3353 2 0.95875500 30.52870000 29.14860000
3354 2 0.59040500 32.49700000 29.84760000
3355 1 1.70378000 31.36630000 28.23540000
3356 1 1.55239000 32.70470000 28.85290000
3357 3 1.22779000 31.30460000 27.36740000
3358 3 2.68705000 31.05910000 28.20900000
3359 3 1.47153000 33.57320000 28.20630000
3360 3 2.39731000 33.11870000 29.40910000
3361 1 17.21730000 17.85810000 17.79850000
3362 2 16.52990000 17.45050000 18.72900000
3363 2 18.48920000 17.50450000 17.52510000
3364 2 16.87050000 18.96620000 17.11230000
3365 1 19.11400000 18.36010000 16.64780000
3366 1 18.03600000 19.36770000 16.28560000
3367 3 19.56780000 17.78640000 15.81830000
3368 3 19.92530000 18.91880000 17.19090000
3369 3 17.97340000 19.33130000 15.17940000
3370 3 18.36400000 20.38950000 16.49820000
3371 1 18.15890000 35.39670000 34.05040000
3372 2 19.10060000 34.67410000 34.15570000
3373 2 17.96330000 36.46550000 34.73600000
3374 2 16.98950000 35.09620000 33.30790000
3375 1 16.67010000 36.94800000 34.48950000
3376 1 16.10870000 36.22170000 33.24130000
3377 3 16.80320000 37.97640000 34.41860000
3378 3 15.97110000 36.63870000 35.28400000
3379 3 16.32940000 36.76080000 32.29330000
3380 3 15.07820000 35.97430000 33.38530000
3381 1 35.95370000 7.97680000 5.60523000
3382 2 35.43450000 8.96471000 6.09106000
3383 2 36.95200000 7.86144000 4.75446000
3384 2 35.79680000 6.73704000 6.14396000
3385 1 37.49610000 6.58175000 4.56372000
3386 1 36.62170000 5.75557000 5.56012000
3387 3 38.55140000 6.49598000 4.74880000
3388 3 37.25740000 6.23466000 3.58121000
3389 3 37.27720000 5.27244000 6.26390000
3390 3 36.02520000 4.95845000 5.17349000
3391 1 12.94730000 28.16670000 26.13180000
3392 2 13.75110000 27.35750000 26.47840000
3393 2 13.21100000 29.19960000 25.26590000
3394 2 11.74780000 28.46120000 26.67630000
3395 1 12.25720000 30.22950000 25.39880000
3396 1 11.29120000 29.76210000 26.37710000
3397 3 11.77420000 30.42440000 24.46010000
3398 3 12.77600000 31.08550000 25.78810000
3399 3 10.23270000 29.95620000 26.11310000
3400 3 11.46480000 30.44110000 27.15220000
3401 1 31.01970000 3.53140000 15.76860000
3402 2 30.24820000 4.30924000 15.17990000
3403 2 31.99620000 2.98873000 15.08190000
3404 2 31.01440000 3.09531000 16.97090000
3405 1 32.70350000 1.97526000 15.84250000
3406 1 32.01430000 2.17908000 17.23080000
3407 3 33.77310000 2.23560000 15.78220000
3408 3 32.68620000 0.90085200 15.47430000
3409 3 32.82180000 2.55776000 17.84330000
3410 3 31.66530000 1.26968000 17.64060000
3411 1 0.70716400 36.43400000 7.10880000
3412 2 43.29740000 36.13920000 6.75963000
3413 2 1.34066000 36.10650000 8.28369000
3414 2 1.43992000 37.31410000 6.47394000
3415 1 2.45697000 36.97770000 8.49124000
3416 1 2.64579000 37.61990000 7.12135000
3417 3 3.31709000 36.38950000 8.77465000
3418 3 2.29072000 37.64120000 9.27817000
3419 3 3.54324000 37.18580000 6.64894000
3420 3 2.68376000 38.70520000 7.23446000
3421 1 9.85422000 2.79802000 11.77640000
3422 2 10.93530000 3.11842000 12.10520000
3423 2 8.86628000 2.35063000 12.58940000
3424 2 9.36345000 2.93752000 10.59910000
3425 1 7.72205000 1.91141000 11.80880000
3426 1 7.94367000 2.81183000 10.59410000
3427 3 6.79221000 2.11599000 12.23160000
3428 3 7.75846000 0.90487600 11.40100000
3429 3 7.59744000 3.83518000 10.67890000
3430 3 7.46937000 2.42406000 9.68553000
3431 1 19.17150000 41.26240000 11.04070000
3432 2 18.97410000 40.95100000 12.22740000
3433 2 19.54180000 40.42800000 9.97413000
3434 2 19.19280000 42.50200000 10.49460000
3435 1 20.01930000 41.09340000 8.83448000
3436 1 19.52270000 42.49850000 9.10854000
3437 3 19.56350000 40.82880000 7.85308000
3438 3 21.12180000 41.04880000 8.86558000
3439 3 18.59950000 42.74680000 8.49259000
3440 3 20.29480000 43.29140000 8.92384000
3441 1 32.32870000 17.14730000 28.38090000
3442 2 32.22580000 15.96550000 27.94220000
3443 2 31.85180000 17.60100000 29.46620000
3444 2 33.13540000 18.08450000 27.88600000
3445 1 32.24080000 18.90770000 29.81440000
3446 1 33.19670000 19.26580000 28.69410000
3447 3 32.80020000 19.10260000 30.71430000
3448 3 31.41890000 19.52350000 29.86170000
3449 3 34.19800000 19.50050000 29.02490000
3450 3 32.90440000 20.15150000 28.06460000
3451 1 2.06992000 5.51277000 31.82920000
3452 2 3.24109000 5.42392000 31.39160000
3453 2 1.04002000 5.82762000 31.17110000
3454 2 1.78543000 5.58826000 33.13230000
3455 1 43.55090000 5.69005000 32.03320000
3456 1 0.48636800 5.99064000 33.44430000
3457 3 43.09340000 4.68852000 31.97920000
3458 3 42.70290000 6.41113000 31.81130000
3459 3 43.75030000 5.18997000 34.09900000
3460 3 0.46319100 7.04792000 33.74210000
3461 1 13.02370000 42.83340000 2.90295000
3462 2 14.22240000 43.05680000 2.76207000
3463 2 12.24440000 42.29370000 1.93779000
3464 2 12.32460000 43.22830000 3.90278000
3465 1 10.95740000 42.04550000 2.46130000
3466 1 10.96820000 42.89810000 3.80854000
3467 3 10.79980000 41.01400000 2.58129000
3468 3 10.14610000 42.30310000 1.82517000
3469 3 10.74900000 42.31730000 4.61894000
3470 3 10.37670000 43.77690000 3.72315000
3471 1 16.81300000 10.52300000 15.85980000
3472 2 16.50570000 11.63250000 15.43590000
3473 2 18.04170000 10.05130000 15.88930000
3474 2 15.99380000 9.52627000 16.24620000
3475 1 18.19230000 8.67177000 16.38630000
3476 1 16.70990000 8.32899000 16.47630000
3477 3 18.70020000 8.69113000 17.33300000
3478 3 18.76280000 8.00225000 15.69600000
3479 3 16.26960000 7.79233000 17.35630000
3480 3 16.57810000 7.53482000 15.78660000
3481 1 34.89560000 34.47190000 17.94260000
3482 2 33.83550000 34.02630000 17.56780000
3483 2 35.13320000 34.93780000 19.13570000
3484 2 36.05520000 34.51080000 17.19690000
3485 1 36.49270000 35.29680000 19.29530000
3486 1 37.06350000 35.05540000 17.91520000
3487 3 36.90390000 34.68090000 20.04250000
3488 3 36.51330000 36.36980000 19.54560000
3489 3 37.88630000 34.38790000 18.00810000
3490 3 37.47680000 35.86300000 17.33370000
3491 1 33.03710000 39.31750000 4.57685000
3492 2 33.65270000 38.29900000 4.39406000
3493 2 31.88530000 39.56110000 4.02985000
3494 2 33.38910000 40.28220000 5.40064000
3495 1 31.31570000 40.69290000 4.64328000
3496 1 32.51290000 41.35580000 5.37390000
3497 3 30.62230000 40.37770000 5.45216000
3498 3 30.81450000 41.35220000 3.85100000
3499 3 32.28420000 41.88170000 6.28102000
3500 3 32.94530000 42.07710000 4.68583000
3501 1 34.35310000 33.35460000 3.25979000
3502 2 35.49830000 32.93790000 3.21272000
3503 2 33.23090000 32.69950000 3.11471000
3504 2 34.01720000 34.58290000 3.63465000
3505 1 32.08140000 33.50380000 3.33457000
3506 1 32.61490000 34.74180000 3.96790000
3507 3 31.58220000 32.89340000 4.09612000
3508 3 31.42810000 33.52360000 2.47200000
3509 3 32.29030000 34.76560000 5.05923000
3510 3 32.08340000 35.58820000 3.51267000
3511 1 29.66950000 43.77940000 14.15540000
3512 2 29.35630000 0.52599800 15.24390000
3513 2 29.67180000 0.75799000 12.99170000
3514 2 29.99030000 42.56020000 13.92470000
3515 1 30.49230000 43.80450000 12.04220000
3516 1 30.27740000 42.40360000 12.53570000
3517 3 31.57680000 0.32500100 12.03380000
3518 3 30.16260000 0.24722100 11.00970000
3519 3 31.17330000 41.74660000 12.45770000
3520 3 29.49310000 41.84530000 12.00860000
3521 1 10.88800000 28.16380000 22.10990000
3522 2 11.98040000 27.75920000 21.83600000
3523 2 10.21800000 27.80470000 23.23070000
3524 2 10.05780000 28.88450000 21.35290000
3525 1 8.91236000 28.34090000 23.25170000
3526 1 8.76580000 28.80910000 21.82390000
3527 3 8.67282000 29.23690000 23.80110000
3528 3 8.18121000 27.62910000 23.61030000
3529 3 8.27565000 29.79090000 21.78000000
3530 3 8.19423000 28.03390000 21.30140000
3531 1 25.96680000 13.97600000 14.87860000
3532 2 24.96670000 14.70140000 14.67260000
3533 2 26.35250000 12.85580000 14.19680000
3534 2 26.87300000 14.17050000 15.84000000
3535 1 27.63440000 12.44380000 14.70190000
3536 1 27.79180000 13.11430000 16.00700000
3537 3 28.55390000 12.59400000 14.04890000
3538 3 27.60510000 11.38950000 14.87130000
3539 3 28.77180000 13.53180000 15.94940000
3540 3 27.60110000 12.48820000 16.88940000
3541 1 16.05170000 24.60420000 22.58800000
3542 2 16.37720000 23.48680000 23.03230000
3543 2 15.08330000 25.27250000 23.09720000
3544 2 16.56250000 25.22050000 21.49360000
3545 1 14.78020000 26.40840000 22.33600000
3546 1 16.03720000 26.60470000 21.42180000
3547 3 14.73410000 27.25860000 23.07480000
3548 3 13.84770000 26.32650000 21.82660000
3549 3 16.76200000 27.25300000 21.88750000
3550 3 15.80120000 26.94470000 20.36790000
3551 1 13.64870000 38.60480000 2.89774000
3552 2 12.56300000 38.55590000 3.49692000
3553 2 14.24120000 37.48500000 2.39339000
3554 2 14.44860000 39.66860000 2.79790000
3555 1 15.59110000 37.84770000 1.97327000
3556 1 15.72310000 39.31520000 2.34526000
3557 3 15.59720000 37.65710000 0.90472900
3558 3 16.33690000 37.17820000 2.54565000
3559 3 16.10890000 39.92730000 1.51779000
3560 3 16.41860000 39.34910000 3.18310000
3561 1 33.87060000 42.55940000 10.76810000
3562 2 33.97650000 43.27800000 11.73200000
3563 2 33.52580000 41.32760000 10.82630000
3564 2 34.24700000 42.85460000 9.52694000
3565 1 33.45030000 40.70850000 9.50478000
3566 1 34.26750000 41.72340000 8.71925000
3567 3 32.43620000 40.64190000 9.00283000
3568 3 33.93050000 39.75830000 9.52900000
3569 3 33.73980000 42.06340000 7.80989000
3570 3 35.31340000 41.36470000 8.45915000
3571 1 7.18248000 25.63240000 40.09340000
3572 2 6.15237000 26.06480000 39.66580000
3573 2 7.18944000 24.78760000 41.08810000
3574 2 8.42808000 25.85250000 39.73110000
3575 1 8.49867000 24.43920000 41.48960000
3576 1 9.38282000 25.28230000 40.54900000
3577 3 8.74752000 23.37960000 41.35540000
3578 3 8.55286000 24.75000000 42.48940000
3579 3 10.19470000 24.75500000 40.06880000
3580 3 9.79747000 26.10030000 41.11140000
3581 1 2.20798000 43.14490000 17.53690000
3582 2 1.60098000 0.37999000 16.97630000
3583 2 3.46372000 42.70770000 17.21540000
3584 2 1.68786000 42.31610000 18.37880000
3585 1 3.86399000 41.63360000 18.10860000
3586 1 2.53717000 41.12600000 18.49790000
3587 3 4.38203000 41.99100000 18.97690000
3588 3 4.52173000 40.87720000 17.70220000
3589 3 2.59241000 40.60810000 19.46820000
3590 3 2.17317000 40.40810000 17.71120000
3591 1 29.54640000 24.47020000 0.24781200
3592 2 30.33670000 25.18280000 43.44460000
3593 2 28.42800000 24.71780000 0.74887500
3594 2 29.66480000 23.16450000 43.79910000
3595 1 27.78830000 23.59450000 1.38563000
3596 1 28.52810000 22.55860000 0.57733600
3597 3 26.67900000 23.61590000 1.42885000
3598 3 28.00590000 23.52860000 2.46847000
3599 3 27.89400000 22.15630000 43.44240000
3600 3 28.70290000 21.67670000 1.23943000
3601 1 29.97920000 9.23835000 23.01690000
3602 2 30.43440000 10.39470000 22.87280000
3603 2 29.17710000 8.86833000 24.00370000
3604 2 30.19340000 8.23295000 22.13000000
3605 1 28.96240000 7.48109000 23.85690000
3606 1 29.33040000 7.08467000 22.41650000
3607 3 27.96350000 7.29117000 24.04580000
3608 3 29.57400000 6.96114000 24.67980000
3609 3 28.41910000 7.09130000 21.80260000
3610 3 29.77590000 6.13772000 22.25630000
3611 1 9.26431000 17.66500000 6.73334000
3612 2 8.40960000 16.80280000 6.94805000
3613 2 9.95970000 17.93030000 5.65591000
3614 2 9.51300000 18.56130000 7.63232000
3615 1 10.50210000 19.23740000 5.70128000
3616 1 10.25800000 19.68450000 7.13973000
3617 3 10.17310000 19.87300000 4.88496000
3618 3 11.58490000 19.08590000 5.48801000
3619 3 9.46307000 20.38040000 7.08425000
3620 3 11.17180000 20.00520000 7.71404000
3621 1 10.71730000 39.50000000 35.11720000
3622 2 9.68398000 40.17570000 35.29170000
3623 2 11.78920000 39.84030000 34.45640000
3624 2 10.87310000 38.32620000 35.64510000
3625 1 12.77490000 38.83350000 34.51910000
3626 1 12.21470000 37.83440000 35.43360000
3627 3 13.68590000 39.20330000 34.91930000
3628 3 12.98370000 38.39960000 33.47200000
3629 3 12.81040000 37.75710000 36.32550000
3630 3 12.36010000 36.86040000 35.00320000
3631 1 40.63800000 6.29312000 8.07203000
3632 2 40.51110000 7.27479000 8.86719000
3633 2 41.46570000 5.26126000 8.22686000
3634 2 39.88730000 6.05526000 6.97696000
3635 1 41.51420000 4.38411000 7.14945000
3636 1 40.21610000 4.80333000 6.51976000
3637 3 41.65580000 3.39081000 7.43986000
3638 3 42.28400000 4.66116000 6.44720000
3639 3 39.42620000 4.01671000 6.74556000
3640 3 40.50300000 4.81150000 5.41597000
3641 1 25.72980000 0.67973100 24.74090000
3642 2 25.33520000 0.88609500 25.88840000
3643 2 25.38070000 43.33470000 23.99510000
3644 2 26.61390000 1.36238000 24.07110000
3645 1 26.13470000 43.27770000 22.83370000
3646 1 26.49100000 1.03087000 22.68650000
3647 3 25.45020000 42.91580000 22.11420000
3648 3 27.04550000 42.67290000 22.78950000
3649 3 25.59860000 1.57750000 22.40300000
3650 3 27.33400000 1.28578000 22.08620000
3651 1 7.57921000 30.24370000 10.09940000
3652 2 7.09244000 31.33930000 10.04830000
3653 2 8.81141000 30.08010000 9.85439000
3654 2 6.93938000 29.05800000 10.33540000
3655 1 9.13123000 28.68090000 9.90370000
3656 1 7.89796000 28.11200000 10.58450000
3657 3 10.07110000 28.41650000 10.40640000
3658 3 8.99715000 28.34890000 8.90737000
3659 3 8.28431000 27.91920000 11.54450000
3660 3 7.65469000 27.16490000 10.18670000
3661 1 33.25810000 17.80980000 17.53050000
3662 2 33.44150000 16.90220000 18.32630000
3663 2 32.01100000 18.32660000 17.27390000
3664 2 34.12670000 18.32310000 16.76000000
3665 1 32.03080000 19.16160000 16.10790000
3666 1 33.59660000 19.43320000 16.05100000
3667 3 31.37400000 20.04140000 16.32910000
3668 3 31.56200000 18.66690000 15.25480000
3669 3 33.74640000 20.33370000 16.56260000
3670 3 34.01650000 19.59280000 15.03440000
3671 1 9.97241000 22.01350000 30.74170000
3672 2 8.95972000 22.54780000 31.15470000
3673 2 11.17740000 22.25750000 31.27570000
3674 2 10.06530000 21.15140000 29.71220000
3675 1 12.12330000 21.42050000 30.59700000
3676 1 11.38190000 20.90340000 29.38660000
3677 3 12.42150000 20.54060000 31.28930000
3678 3 13.07540000 21.91520000 30.21210000
3679 3 11.50250000 19.80620000 29.24010000
3680 3 11.79920000 21.48580000 28.57430000
3681 1 35.05800000 6.30495000 1.53818000
3682 2 35.08560000 5.19189000 2.07516000
3683 2 35.07380000 7.47542000 2.23143000
3684 2 34.89300000 6.49429000 0.27455400
3685 1 35.18570000 8.58438000 1.34062000
3686 1 34.83120000 7.86571000 43.71200000
3687 3 36.21020000 9.01453000 1.36050000
3688 3 34.55920000 9.37781000 1.52891000
3689 3 35.48040000 8.28720000 43.02850000
3690 3 33.92140000 8.27500000 43.39050000
3691 1 6.37832000 36.13700000 2.07969000
3692 2 6.40390000 35.67000000 0.95269200
3693 2 5.31292000 36.41660000 2.88256000
3694 2 7.49697000 36.52270000 2.74477000
3695 1 5.65757000 37.03260000 4.12516000
3696 1 7.19807000 37.23480000 3.94829000
3697 3 5.41704000 36.33260000 4.99508000
3698 3 5.25590000 38.04520000 4.36733000
3699 3 7.88849000 37.00580000 4.79426000
3700 3 7.58078000 38.16620000 3.49429000
3701 1 29.99810000 23.44740000 36.87170000
3702 2 29.36510000 23.01320000 37.83760000
3703 2 30.01400000 22.95060000 35.73850000
3704 2 30.70870000 24.52110000 36.89980000
3705 1 30.74070000 23.69920000 34.79570000
3706 1 31.29630000 24.78380000 35.66430000
3707 3 30.13120000 24.03230000 33.97900000
3708 3 31.47290000 23.13840000 34.28310000
3709 3 31.05310000 25.74170000 35.24970000
3710 3 32.39340000 24.60710000 35.85290000
3711 1 36.08530000 26.05330000 8.85251000
3712 2 34.86380000 26.27710000 8.79009000
3713 2 36.90060000 25.61390000 7.88566000
3714 2 36.84910000 26.45430000 9.80981000
3715 1 38.18920000 25.35830000 8.34668000
3716 1 38.25040000 26.24210000 9.53182000
3717 3 38.97660000 25.60390000 7.72732000
3718 3 38.28590000 24.26370000 8.61068000
3719 3 38.69600000 27.21640000 9.43589000
3720 3 38.82460000 25.74240000 10.39840000
3721 1 4.13545000 6.47485000 43.48160000
3722 2 3.31202000 6.35372000 42.58030000
3723 2 5.42857000 6.42341000 43.42610000
3724 2 3.76567000 6.51886000 1.05095000
3725 1 6.01141000 6.21996000 1.04522000
3726 1 4.80605000 6.63341000 1.95625000
3727 3 6.92766000 6.76771000 1.08391000
3728 3 6.29259000 5.19069000 1.10243000
3729 3 4.99011000 7.65078000 2.19439000
3730 3 4.69742000 6.10209000 2.94388000
3731 1 12.51330000 42.77480000 18.71900000
3732 2 11.62800000 41.99460000 18.48330000
3733 2 13.35640000 42.76830000 19.74040000
3734 2 12.86130000 43.75350000 17.84810000
3735 1 14.49790000 43.37560000 19.40250000
3736 1 14.02870000 0.68873900 18.37220000
3737 3 15.23010000 42.65100000 19.04200000
3738 3 15.01490000 43.82130000 20.23740000
3739 3 14.79700000 0.81253900 17.63680000
3740 3 13.88060000 1.69845000 18.82770000
3741 1 2.06202000 20.88170000 29.01760000
3742 2 1.92984000 20.87740000 30.21400000
3743 2 1.15719000 20.44230000 28.09130000
3744 2 3.20785000 20.96400000 28.36170000
3745 1 1.76735000 20.21940000 26.85330000
3746 1 3.09116000 21.00590000 26.97970000
3747 3 1.04925000 20.59290000 26.08890000
3748 3 1.77262000 19.10250000 26.60570000
3749 3 3.06421000 22.03650000 26.52160000
3750 3 4.00786000 20.51870000 26.51890000
3751 1 5.56783000 8.57654000 5.56650000
3752 2 4.56917000 8.08036000 5.19293000
3753 2 6.23527000 9.62460000 4.97626000
3754 2 6.27006000 8.21761000 6.69682000
3755 1 7.14805000 10.13080000 5.91032000
3756 1 7.45836000 8.91831000 6.87306000
3757 3 6.45647000 10.84420000 6.43544000
3758 3 8.01456000 10.75230000 5.48917000
3759 3 7.57076000 9.24031000 7.95627000
3760 3 8.36012000 8.26794000 6.80361000
3761 1 19.54020000 15.65240000 40.24630000
3762 2 20.07780000 16.60030000 40.80180000
3763 2 18.58740000 14.88750000 40.72530000
3764 2 19.83340000 15.29880000 39.06450000
3765 1 18.13460000 13.91420000 39.85980000
3766 1 19.05390000 14.20960000 38.66500000
3767 3 17.10030000 14.05770000 39.73640000
3768 3 18.26870000 13.01630000 40.39650000
3769 3 18.42360000 14.66890000 37.96390000
3770 3 19.53810000 13.27930000 38.33200000
3771 1 38.66800000 13.28510000 35.36700000
3772 2 39.17510000 12.92960000 36.38460000
3773 2 38.68870000 12.50250000 34.28200000
3774 2 37.80470000 14.22440000 35.11910000
3775 1 37.94110000 13.07790000 33.26530000
3776 1 37.28140000 14.21410000 33.88520000
3777 3 37.23860000 12.24150000 33.13040000
3778 3 38.53040000 13.23680000 32.35420000
3779 3 36.21380000 13.92090000 33.93370000
3780 3 37.34740000 15.21350000 33.42580000
3781 1 2.15552000 22.97730000 33.63950000
3782 2 3.08589000 22.78570000 34.44030000
3783 2 2.24844000 23.77170000 32.55480000
3784 2 1.00523000 22.44460000 33.69720000
3785 1 1.05897000 23.76800000 31.78200000
3786 1 0.28009400 22.57970000 32.49330000
3787 3 1.16626000 23.71010000 30.67450000
3788 3 0.41394800 24.63120000 31.95510000
3789 3 0.41642600 21.72170000 31.89890000
3790 3 42.89860000 22.69550000 32.56970000
3791 1 3.74519000 42.04070000 8.28773000
3792 2 3.69613000 41.01580000 7.62386000
3793 2 2.79938000 42.59240000 8.99024000
3794 2 4.82040000 42.75430000 8.59071000
3795 1 3.24229000 43.77810000 9.65558000
3796 1 4.72969000 43.58570000 9.63180000
3797 3 2.88542000 0.30173300 10.70460000
3798 3 2.97022000 0.89583100 8.99114000
3799 3 5.03811000 43.22510000 10.61570000
3800 3 5.35578000 0.82809400 9.39781000
3801 1 21.34170000 33.03190000 27.29620000
3802 2 22.51990000 32.77060000 27.23470000
3803 2 20.24690000 32.26810000 27.04290000
3804 2 20.89800000 34.26100000 27.73260000
3805 1 19.07660000 32.79940000 27.72410000
3806 1 19.52670000 34.28040000 28.04980000
3807 3 18.92580000 32.23820000 28.66000000
3808 3 18.19800000 32.71340000 27.13050000
3809 3 19.34640000 34.54390000 29.13020000
3810 3 19.10420000 35.08730000 27.51050000
3811 1 11.03250000 15.91480000 30.94410000
3812 2 12.11710000 15.90750000 31.56430000
3813 2 10.18250000 14.88630000 30.74540000
3814 2 10.53240000 16.97160000 30.50400000
3815 1 9.01150000 15.26510000 30.13980000
3816 1 9.35485000 16.71820000 29.83560000
3817 3 8.17222000 15.20150000 30.79200000
3818 3 8.88931000 14.75150000 29.20550000
3819 3 8.57965000 17.45920000 30.01160000
3820 3 9.61704000 16.81370000 28.76700000
3821 1 21.99390000 10.36370000 38.17270000
3822 2 21.44540000 9.29411000 37.90790000
3823 2 21.42150000 11.41790000 38.61800000
3824 2 23.27520000 10.57220000 38.05220000
3825 1 22.35780000 12.44580000 38.66310000
3826 1 23.68720000 11.78970000 38.63030000
3827 3 22.22610000 13.01960000 39.53260000
3828 3 22.23520000 13.14050000 37.80360000
3829 3 24.10840000 11.54060000 39.61770000
3830 3 24.53540000 12.14960000 37.79990000
3831 1 16.67920000 38.23700000 9.69293000
3832 2 17.66300000 37.60190000 9.45191000
3833 2 16.55500000 39.15910000 10.65650000
3834 2 15.42060000 37.91410000 9.26560000
3835 1 15.20010000 39.40620000 11.13230000
3836 1 14.46360000 38.76020000 9.89731000
3837 3 15.03900000 40.52410000 11.17160000
3838 3 14.99120000 38.91090000 12.08020000
3839 3 14.17260000 39.63350000 9.26932000
3840 3 13.69000000 38.11180000 10.32450000
3841 1 39.63490000 8.09115000 2.53971000
3842 2 39.39380000 9.12665000 3.18406000
3843 2 40.66320000 7.28400000 2.69554000
3844 2 38.81380000 7.58780000 1.64598000
3845 1 40.80630000 6.38810000 1.62068000
3846 1 39.39490000 6.34515000 1.11924000
3847 3 41.08940000 5.35826000 1.94477000
3848 3 41.46000000 6.66557000 0.79904300
3849 3 38.85540000 5.45648000 1.47012000
3850 3 39.29720000 6.28141000 43.76590000
3851 1 21.35000000 29.71550000 31.20410000
3852 2 22.40480000 29.29200000 30.82590000
3853 2 20.30150000 29.74790000 30.46020000
3854 2 21.04810000 30.19180000 32.48880000
3855 1 19.24230000 30.50730000 31.05810000
3856 1 19.69850000 30.62170000 32.58380000
3857 3 18.28750000 30.02700000 30.97220000
3858 3 19.16840000 31.53420000 30.60360000
3859 3 18.96510000 29.98010000 33.10900000
3860 3 19.72390000 31.67930000 32.78150000
3861 1 21.13340000 3.07360000 22.25290000
3862 2 20.41860000 3.50038000 21.36790000
3863 2 22.30930000 2.69571000 22.12330000
3864 2 20.66260000 2.80447000 23.47740000
3865 1 22.85260000 2.16737000 23.29270000
3866 1 21.71070000 2.41481000 24.32830000
3867 3 23.83320000 2.51141000 23.64560000
3868 3 23.00080000 1.11282000 23.03260000
3869 3 21.88920000 3.23808000 25.09330000
3870 3 21.29910000 1.53792000 24.84790000
3871 1 11.96480000 8.72294000 19.07290000
3872 2 11.01080000 7.93909000 19.13000000
3873 2 12.05440000 9.99202000 19.64720000
3874 2 13.10570000 8.48787000 18.45320000
3875 1 13.37320000 10.46300000 19.51210000
3876 1 13.89640000 9.67725000 18.34670000
3877 3 13.92170000 10.04350000 20.43060000
3878 3 13.47150000 11.54580000 19.38840000
3879 3 14.93150000 9.44259000 18.47660000
3880 3 13.64080000 10.23020000 17.50930000
3881 1 18.28810000 19.27550000 26.05450000
3882 2 19.23180000 19.35610000 26.79260000
3883 2 17.31080000 20.15740000 25.95050000
3884 2 18.10420000 18.35780000 25.15030000
3885 1 16.30350000 19.74840000 25.04550000
3886 1 17.18140000 18.81270000 24.20320000
3887 3 15.91630000 20.59300000 24.49670000
3888 3 15.45120000 19.19390000 25.46000000
3889 3 17.66220000 19.33700000 23.45990000
3890 3 16.70080000 18.00030000 23.77350000
3891 1 28.82180000 33.77140000 5.40651000
3892 2 28.34850000 34.01320000 4.30498000
3893 2 28.21080000 33.06960000 6.33818000
3894 2 29.96360000 34.17110000 5.98111000
3895 1 28.88980000 32.99570000 7.58684000
3896 1 30.24040000 33.41130000 7.16453000
3897 3 28.83870000 31.96850000 8.12953000
3898 3 28.49340000 33.80330000 8.23849000
3899 3 30.73810000 32.50820000 6.95648000
3900 3 30.80180000 33.98800000 7.94940000
3901 1 30.75750000 32.01250000 11.15080000
3902 2 31.14780000 32.42960000 10.11520000
3903 2 29.57920000 31.51000000 11.34180000
3904 2 31.50410000 31.88330000 12.28690000
3905 1 29.44510000 30.98580000 12.60360000
3906 1 30.71060000 31.36040000 13.28900000
3907 3 29.27380000 29.91070000 12.64890000
3908 3 28.52950000 31.32660000 13.10960000
3909 3 31.15310000 30.53210000 13.85720000
3910 3 30.58600000 32.10210000 13.96510000
3911 1 20.15290000 12.35140000 35.00190000
3912 2 21.18130000 13.01380000 35.16230000
3913 2 19.27630000 12.51890000 33.94930000
3914 2 19.87670000 11.28800000 35.65090000
3915 1 18.15300000 11.74450000 34.25580000
3916 1 18.76870000 10.60260000 35.12330000
3917 3 17.67420000 11.31730000 33.29180000
3918 3 17.41030000 12.32760000 34.84880000
3919 3 19.22330000 9.81961000 34.51610000
3920 3 18.03130000 10.26310000 35.87470000
3921 1 40.36340000 5.34047000 14.13350000
3922 2 39.80450000 5.10307000 15.21770000
3923 2 39.72580000 5.63859000 13.03080000
3924 2 41.61590000 5.19507000 13.88280000
3925 1 40.49510000 5.96342000 11.87370000
3926 1 41.89740000 5.51887000 12.43380000
3927 3 40.45200000 7.03051000 11.65190000
3928 3 40.06870000 5.50177000 11.02140000
3929 3 42.69590000 6.25637000 12.22210000
3930 3 42.08400000 4.63077000 11.74710000
3931 1 9.40324000 1.36304000 6.37454000
3932 2 10.09490000 2.18701000 5.74946000
3933 2 9.27740000 1.10625000 7.74026000
3934 2 8.81105000 0.24069800 5.83173000
3935 1 8.44937000 43.65300000 8.09171000
3936 1 8.04961000 43.18770000 6.73296000
3937 3 7.63951000 43.87670000 8.74161000
3938 3 9.12923000 42.96870000 8.56940000
3939 3 7.02808000 43.32780000 6.52976000
3940 3 8.30650000 42.21070000 6.49812000
3941 1 37.89430000 32.49820000 8.16596000
3942 2 37.42180000 33.16460000 7.23777000
3943 2 39.02500000 32.69870000 8.81027000
3944 2 37.28090000 31.42330000 8.77371000
3945 1 39.15650000 31.76240000 9.89607000
3946 1 38.08030000 30.69880000 9.67473000
3947 3 38.92040000 32.33730000 10.81120000
3948 3 40.10180000 31.13450000 10.03530000
3949 3 37.42890000 30.51900000 10.53860000
3950 3 38.37490000 29.72030000 9.28873000
3951 1 41.55120000 25.57020000 17.71520000
3952 2 41.19660000 26.27480000 16.75900000
3953 2 40.77170000 24.91580000 18.61520000
3954 2 42.85530000 25.40810000 18.14990000
3955 1 41.49530000 23.89340000 19.30590000
3956 1 42.91400000 24.49030000 19.27430000
3957 3 41.43730000 22.95350000 18.74010000
3958 3 41.18860000 23.74410000 20.30730000
3959 3 43.58610000 23.67210000 19.00130000
3960 3 43.24190000 24.95760000 20.21860000
3961 1 26.97240000 27.62110000 3.16979000
3962 2 28.06720000 28.06070000 3.48418000
3963 2 26.84350000 26.65440000 2.26503000
3964 2 25.78580000 28.04230000 3.44721000
3965 1 25.50930000 26.34350000 1.96248000
3966 1 24.75980000 27.20510000 2.93527000
3967 3 25.28010000 25.29780000 2.25006000
3968 3 25.22240000 26.58550000 0.93998300
3969 3 24.47150000 26.64140000 3.83975000
3970 3 23.84210000 27.75210000 2.58152000
3971 1 26.60180000 16.16650000 23.18140000
3972 2 26.93930000 15.75290000 22.03880000
3973 2 26.03690000 15.40480000 24.04820000
3974 2 27.00340000 17.28000000 23.68000000
3975 1 25.70690000 16.13590000 25.17600000
3976 1 26.67050000 17.35900000 25.04730000
3977 3 25.86650000 15.53050000 26.04960000
3978 3 24.67760000 16.39530000 25.05880000
3979 3 27.55070000 17.25890000 25.66940000
3980 3 26.11340000 18.23390000 25.23880000
3981 1 24.57550000 33.65900000 23.18980000
3982 2 24.16180000 33.03390000 24.17370000
3983 2 25.16530000 34.81020000 23.21890000
3984 2 24.38340000 33.31210000 21.94250000
3985 1 25.32510000 35.32680000 21.93360000
3986 1 24.79600000 34.26520000 21.01120000
3987 3 26.32960000 35.66240000 21.83410000
3988 3 24.76610000 36.23620000 21.69700000
3989 3 25.61490000 33.80060000 20.43440000
3990 3 23.93030000 34.54190000 20.32560000
3991 1 2.83896000 32.17790000 18.47500000
3992 2 3.35751000 32.81100000 19.37550000
3993 2 1.88490000 31.23760000 18.58800000
3994 2 3.23440000 32.28810000 17.20220000
3995 1 1.66996000 30.60360000 17.32480000
3996 1 2.85662000 31.12600000 16.47600000
3997 3 0.70028200 30.87370000 16.77260000
3998 3 1.85743000 29.63070000 17.38980000
3999 3 2.46796000 31.29520000 15.52730000
4000 3 3.59578000 30.34820000 16.34610000
4001 1 13.55790000 20.02270000 38.53680000
4002 2 13.58370000 21.26470000 38.72400000
4003 2 12.89590000 19.44420000 37.59340000
4004 2 14.25230000 19.07860000 39.14570000
4005 1 12.81920000 18.03940000 37.70790000
4006 1 14.00480000 17.81020000 38.56510000
4007 3 12.78710000 17.60700000 36.73440000
4008 3 11.96120000 17.69690000 38.30800000
4009 3 14.87930000 17.40680000 37.99570000
4010 3 13.76150000 16.95650000 39.15430000
4011 1 31.09780000 12.43940000 36.83010000
4012 2 30.21990000 11.77960000 36.32060000
4013 2 31.41820000 13.67470000 36.54370000
4014 2 31.95640000 12.01410000 37.79490000
4015 1 32.38140000 14.20560000 37.36980000
4016 1 32.83510000 13.09040000 38.25110000
4017 3 31.90040000 14.87550000 38.07620000
4018 3 33.22290000 14.73030000 36.75340000
4019 3 32.56890000 13.26020000 39.28220000
4020 3 33.90850000 12.74360000 38.19160000
4021 1 33.29330000 12.73740000 25.96520000
4022 2 34.27160000 12.42420000 26.63410000
4023 2 32.07070000 12.69020000 26.48140000
4024 2 33.27440000 13.09710000 24.76400000
4025 1 31.06820000 13.19670000 25.62680000
4026 1 31.87600000 13.15630000 24.39500000
4027 3 30.72670000 14.20840000 25.88680000
4028 3 30.12360000 12.59820000 25.42930000
4029 3 31.62040000 13.83350000 23.56740000
4030 3 31.79180000 12.17190000 23.91170000
4031 1 19.67470000 22.15620000 18.63620000
4032 2 20.24480000 21.28030000 18.04590000
4033 2 19.11630000 23.21620000 18.04520000
4034 2 19.37200000 22.10560000 19.90240000
4035 1 18.40620000 24.08150000 18.98420000
4036 1 18.75760000 23.37100000 20.32750000
4037 3 17.35570000 24.04790000 18.70020000
4038 3 18.77100000 25.11540000 19.02790000
4039 3 17.90220000 23.18590000 20.89750000
4040 3 19.38680000 24.00670000 20.85380000
4041 1 24.43600000 30.77130000 2.62100000
4042 2 23.40970000 30.43250000 3.27563000
4043 2 24.59950000 30.83070000 1.30699000
4044 2 25.45420000 31.28270000 3.17552000
4045 1 25.73170000 31.57720000 0.90088000
4046 1 26.45720000 31.73400000 2.25680000
4047 3 25.43880000 32.52900000 0.40181900
4048 3 26.24250000 31.08670000 43.71110000
4049 3 26.77570000 32.72490000 2.52659000
4050 3 27.31280000 31.08790000 2.23246000
4051 1 21.89500000 13.31390000 20.48360000
4052 2 20.83510000 13.04630000 19.94920000
4053 2 22.28640000 12.74660000 21.60210000
4054 2 22.71210000 14.32850000 20.18450000
4055 1 23.41110000 13.41610000 22.25070000
4056 1 23.66750000 14.42240000 21.18280000
4057 3 24.34680000 12.78510000 22.26820000
4058 3 23.22300000 13.88030000 23.18050000
4059 3 24.55990000 14.07780000 20.72750000
4060 3 23.83690000 15.49000000 21.33710000
4061 1 3.54427000 17.42510000 8.58076000
4062 2 2.31888000 17.47150000 8.79588000
4063 2 4.56583000 16.88640000 9.29908000
4064 2 4.03796000 17.96250000 7.44595000
4065 1 5.77662000 17.06080000 8.65397000
4066 1 5.36279000 17.53630000 7.28253000
4067 3 6.42835000 16.13540000 8.56492000
4068 3 6.22049000 17.81800000 9.21339000
4069 3 5.41526000 16.65470000 6.64561000
4070 3 5.93354000 18.44540000 6.85880000
4071 1 19.34990000 20.46610000 40.71150000
4072 2 19.84780000 21.11400000 41.61840000
4073 2 17.99480000 20.31280000 40.45970000
4074 2 20.01050000 19.85290000 39.76410000
4075 1 17.77910000 19.48730000 39.42680000
4076 1 19.14570000 19.22650000 38.83500000
4077 3 17.23490000 20.05810000 38.67410000
4078 3 17.18190000 18.54070000 39.64280000
4079 3 19.26410000 19.51480000 37.76940000
4080 3 19.39040000 18.14070000 38.78040000
4081 1 26.83340000 15.49290000 40.41270000
4082 2 26.44270000 16.36150000 39.71460000
4083 2 27.79310000 15.68170000 41.34970000
4084 2 26.38650000 14.30470000 40.64690000
4085 1 28.15070000 14.59460000 42.08230000
4086 1 26.90330000 13.86980000 41.86620000
4087 3 28.17080000 14.80710000 43.12870000
4088 3 29.05280000 14.06860000 41.74570000
4089 3 26.22510000 14.09360000 42.69740000
4090 3 27.11450000 12.82880000 41.84370000
4091 1 42.20090000 37.11600000 10.46420000
4092 2 43.04240000 37.82730000 11.01200000
4093 2 41.04530000 37.56150000 10.18050000
4094 2 42.31450000 35.83490000 10.13140000
4095 1 40.13550000 36.52060000 9.93204000
4096 1 41.02610000 35.38900000 9.54247000
4097 3 39.38320000 36.69770000 9.20633000
4098 3 39.54670000 36.26010000 10.85740000
4099 3 41.09230000 35.32030000 8.37211000
4100 3 40.72780000 34.42830000 9.90225000
4101 1 2.06161000 39.25010000 0.94849300
4102 2 2.28688000 40.26340000 0.28059100
4103 2 2.92149000 38.41500000 1.58085000
4104 2 0.90958000 38.73270000 1.10333000
4105 1 2.32577000 37.30710000 2.18425000
4106 1 0.93604800 37.45560000 1.70713000
4107 3 2.30397000 37.42480000 3.25533000
4108 3 2.62745000 36.34150000 1.77468000
4109 3 0.17912200 37.27370000 2.49942000
4110 3 0.62323400 36.65210000 0.99400900
4111 1 11.77780000 7.52533000 33.74170000
4112 2 12.46870000 8.50908000 33.47270000
4113 2 12.14700000 6.27576000 33.53330000
4114 2 10.53010000 7.44901000 34.23190000
4115 1 11.27200000 5.26254000 34.00870000
4116 1 10.02540000 6.09971000 34.41220000
4117 3 11.74310000 4.79511000 34.82630000
4118 3 11.07840000 4.44228000 33.40040000
4119 3 9.57526000 5.96294000 35.42610000
4120 3 9.21387000 6.04716000 33.73820000
4121 1 32.69730000 29.10560000 28.69400000
4122 2 31.86880000 29.94900000 28.36550000
4123 2 33.35900000 28.41950000 27.72910000
4124 2 33.28250000 28.89560000 29.85690000
4125 1 34.16910000 27.51640000 28.41390000
4126 1 34.51530000 28.15140000 29.71770000
4127 3 35.10740000 27.33570000 27.97640000
4128 3 33.81340000 26.55350000 28.67180000
4129 3 35.39890000 28.79940000 29.71360000
4130 3 34.65410000 27.38400000 30.50010000
4131 1 15.73840000 31.57090000 33.01430000
4132 2 16.80730000 31.03280000 33.17040000
4133 2 14.93740000 31.46690000 31.94190000
4134 2 15.28370000 32.45420000 33.80380000
4135 1 13.85250000 32.36370000 31.94380000
4136 1 14.12460000 33.08070000 33.25260000
4137 3 12.88640000 31.89980000 32.06460000
4138 3 13.92280000 32.99410000 31.09030000
4139 3 13.17040000 32.98540000 33.88230000
4140 3 14.24460000 34.11730000 33.10910000
4141 1 35.80950000 43.40090000 16.33870000
4142 2 35.55930000 0.71975400 16.95720000
4143 2 35.88410000 42.13790000 16.84210000
4144 2 36.25500000 43.37910000 15.11330000
4145 1 36.21000000 41.20490000 15.78480000
4146 1 36.37560000 42.10300000 14.55670000
4147 3 35.43290000 40.43310000 15.58770000
4148 3 37.12360000 40.64880000 15.81840000
4149 3 35.51720000 41.91570000 13.96880000
4150 3 37.23500000 41.73520000 14.01230000
4151 1 18.42570000 28.77140000 12.63260000
4152 2 19.52640000 29.26610000 12.87410000
4153 2 17.49670000 29.20790000 11.72140000
4154 2 17.89920000 27.80230000 13.30460000
4155 1 16.28340000 28.55730000 11.94310000
4156 1 16.78160000 27.27170000 12.66490000
4157 3 15.73170000 28.24240000 11.15500000
4158 3 15.70740000 29.16100000 12.64630000
4159 3 17.05930000 26.60880000 11.87610000
4160 3 16.08490000 26.84000000 13.39750000
4161 1 21.85150000 9.51731000 12.04890000
4162 2 22.96270000 9.95802000 11.94130000
4163 2 21.46830000 8.60916000 11.15160000
4164 2 20.75900000 9.87791000 12.79800000
4165 1 20.03830000 8.29971000 11.26980000
4166 1 19.66480000 8.99428000 12.57860000
4167 3 19.98970000 7.22593000 11.26200000
4168 3 19.41750000 8.73233000 10.47560000
4169 3 19.46430000 8.38785000 13.44620000
4170 3 18.75400000 9.61583000 12.46770000
4171 1 20.83450000 15.91310000 33.60660000
4172 2 20.86930000 15.72850000 32.37580000
4173 2 21.85740000 15.75140000 34.39150000
4174 2 19.84500000 16.43580000 34.32170000
4175 1 21.58560000 16.05550000 35.77140000
4176 1 20.10810000 16.32760000 35.70780000
4177 3 22.07530000 16.96860000 36.10800000
4178 3 21.88340000 15.27190000 36.50920000
4179 3 19.60980000 17.22630000 36.18200000
4180 3 19.50770000 15.47480000 36.01440000
4181 1 4.41132000 16.09160000 17.39210000
4182 2 5.19813000 17.01940000 17.68940000
4183 2 3.43952000 15.75770000 18.12850000
4184 2 4.46268000 15.28740000 16.33660000
4185 1 2.52341000 14.90470000 17.43430000
4186 1 3.38274000 14.40580000 16.29690000
4187 3 1.59028000 15.30470000 17.11680000
4188 3 2.31743000 14.12210000 18.13330000
4189 3 2.87873000 14.36620000 15.33520000
4190 3 3.81604000 13.44800000 16.51600000
4191 1 21.16540000 2.67462000 37.75060000
4192 2 21.78620000 3.68524000 38.13450000
4193 2 21.05070000 2.27673000 36.48140000
4194 2 20.55110000 1.82831000 38.55790000
4195 1 20.42030000 0.97433900 36.39180000
4196 1 19.81370000 0.91118400 37.79490000
4197 3 21.21750000 0.24154300 36.37420000
4198 3 19.65420000 0.95292400 35.58290000
4199 3 19.70920000 43.57070000 38.29580000
4200 3 18.78590000 1.23281000 37.67160000
4201 1 37.32000000 27.66290000 20.92170000
4202 2 36.93400000 27.29950000 22.06560000
4203 2 37.03330000 28.84100000 20.27440000
4204 2 38.03850000 26.93520000 20.14600000
4205 1 37.69610000 28.99210000 19.03840000
4206 1 38.09460000 27.53630000 18.82590000
4207 3 38.64040000 29.58030000 19.25140000
4208 3 37.16330000 29.41800000 18.19650000
4209 3 39.05470000 27.47960000 18.33100000
4210 3 37.35610000 27.09040000 18.20410000
4211 1 31.79120000 41.83140000 16.65150000
4212 2 31.61090000 42.65120000 17.56440000
4213 2 32.85590000 41.71850000 15.81600000
4214 2 30.98020000 40.82310000 16.53080000
4215 1 32.66780000 40.64080000 14.90960000
4216 1 31.23620000 40.17280000 15.29490000
4217 3 33.47540000 39.92940000 15.23020000
4218 3 32.85420000 40.96760000 13.83700000
4219 3 31.27400000 39.14010000 15.39290000
4220 3 30.50190000 40.32050000 14.44590000
4221 1 33.67720000 43.38570000 22.31450000
4222 2 34.37370000 42.67420000 22.98710000
4223 2 33.25450000 0.82579900 22.63170000
4224 2 33.10640000 42.94240000 21.30910000
4225 1 32.31860000 1.32971000 21.72840000
4226 1 32.33830000 0.22665000 20.69920000
4227 3 32.58540000 2.21701000 21.19580000
4228 3 31.37450000 1.61700000 22.23100000
4229 3 32.90990000 0.58306500 19.88640000
4230 3 31.39100000 43.49370000 20.43390000
4231 1 18.11120000 37.73080000 5.46187000
4232 2 18.33340000 38.83970000 4.96666000
4233 2 17.16780000 36.82250000 5.02796000
4234 2 18.91140000 37.08840000 6.32773000
4235 1 17.40870000 35.52620000 5.41643000
4236 1 18.69990000 35.67610000 6.32068000
4237 3 17.65010000 34.94870000 4.47768000
4238 3 16.66360000 35.05740000 6.01157000
4239 3 19.46550000 35.15770000 5.84485000
4240 3 18.55380000 35.33100000 7.32791000
4241 1 29.37870000 16.02290000 13.95130000
4242 2 29.80430000 16.20540000 15.08060000
4243 2 29.11290000 14.82910000 13.39470000
4244 2 28.84740000 16.95200000 13.16020000
4245 1 28.61020000 14.99230000 12.09400000
4246 1 28.05550000 16.37120000 12.13700000
4247 3 27.81580000 14.29690000 11.84530000
4248 3 29.39330000 14.92670000 11.31950000
4249 3 27.02440000 16.28970000 12.51200000
4250 3 27.99480000 16.98400000 11.19120000
4251 1 42.34870000 5.43584000 26.04430000
4252 2 41.85240000 5.72387000 24.93440000
4253 2 43.62870000 5.63309000 26.33950000
4254 2 41.71010000 5.13944000 27.14750000
4255 1 0.17702900 5.68332000 27.69410000
4256 1 42.62500000 5.05949000 28.22200000
4257 3 0.32542800 6.63889000 28.03930000
4258 3 1.01344000 5.07489000 28.00650000
4259 3 42.16910000 5.35648000 29.14520000
4260 3 42.86110000 3.98026000 28.31000000
4261 1 11.07290000 24.56270000 27.78410000
4262 2 11.60260000 24.56930000 28.88480000
4263 2 10.84660000 25.63570000 26.99410000
4264 2 10.89790000 23.39610000 26.96300000
4265 1 10.23920000 25.24770000 25.77790000
4266 1 10.72300000 23.76900000 25.61570000
4267 3 10.54530000 25.82610000 24.94770000
4268 3 9.19022000 25.27340000 25.85360000
4269 3 11.65310000 23.73220000 25.11940000
4270 3 10.00970000 23.04560000 25.22930000
4271 1 33.59400000 31.84380000 7.05504000
4272 2 33.30040000 32.99750000 6.81735000
4273 2 34.16020000 31.01800000 6.14225000
4274 2 33.45930000 31.22340000 8.24095000
4275 1 34.51260000 29.84260000 6.75928000
4276 1 33.87590000 29.86650000 8.13139000
4277 3 35.57250000 29.83320000 7.01532000
4278 3 34.24830000 28.93900000 6.27322000
4279 3 34.58540000 29.57620000 8.86364000
4280 3 33.03730000 29.17940000 8.17147000
4281 1 24.24490000 16.72800000 6.41853000
4282 2 25.21150000 17.41260000 6.37295000
4283 2 23.89160000 16.07810000 7.56549000
4284 2 23.39130000 16.50540000 5.50707000
4285 1 22.78420000 15.20060000 7.40936000
4286 1 22.32870000 15.69620000 6.02048000
4287 3 22.06200000 15.44840000 8.21202000
4288 3 23.21480000 14.19960000 7.41069000
4289 3 21.47340000 16.40970000 6.12679000
4290 3 22.06250000 14.82730000 5.38855000
4291 1 2.84629000 25.99880000 41.93600000
4292 2 2.28211000 26.71260000 41.16170000
4293 2 2.24046000 25.03550000 42.67900000
4294 2 4.10851000 25.91770000 42.13120000
4295 1 3.15431000 24.32290000 43.42690000
4296 1 4.43570000 25.19190000 43.28610000
4297 3 3.19530000 23.26190000 43.10390000
4298 3 2.81092000 24.21750000 0.79741700
4299 3 5.19089000 24.41580000 43.19950000
4300 3 4.55792000 25.85520000 0.36959000
4301 1 37.57600000 23.62690000 32.03340000
4302 2 36.41120000 23.47340000 31.57760000
4303 2 38.00490000 23.61850000 33.31270000
4304 2 38.67050000 23.83370000 31.29110000
4305 1 39.45750000 23.58560000 33.39060000
4306 1 39.83460000 24.04850000 32.03390000
4307 3 39.86400000 22.56330000 33.51660000
4308 3 39.72830000 24.26490000 34.20270000
4309 3 40.69930000 23.51610000 31.69220000
4310 3 39.97840000 25.12740000 32.00010000
4311 1 31.23830000 22.81530000 4.30008000
4312 2 31.14550000 21.67150000 4.63045000
4313 2 30.18730000 23.55060000 4.03745000
4314 2 32.38020000 23.46380000 4.01738000
4315 1 30.57140000 24.91920000 3.77579000
4316 1 32.13560000 24.75060000 3.45861000
4317 3 30.28910000 25.45080000 4.74610000
4318 3 29.99700000 25.40870000 2.96038000
4319 3 32.75440000 25.51660000 3.94871000
4320 3 32.29760000 24.71900000 2.36332000
4321 1 19.03510000 5.07425000 25.92670000
4322 2 19.30990000 4.78499000 27.09750000
4323 2 17.77900000 5.38223000 25.54010000
4324 2 19.80430000 5.13847000 24.81190000
4325 1 17.69140000 5.98880000 24.33100000
4326 1 18.98850000 5.53213000 23.73340000
4327 3 17.45880000 7.02372000 24.43290000
4328 3 16.80640000 5.63630000 23.68760000
4329 3 19.46150000 6.32966000 23.21370000
4330 3 18.84450000 4.79929000 23.02500000
4331 1 11.31670000 1.19257000 32.14290000
4332 2 11.40830000 2.43968000 32.09030000
4333 2 10.10130000 0.52709200 32.24270000
4334 2 12.31630000 0.34393100 32.24490000
4335 1 10.30140000 42.86560000 32.42980000
4336 1 11.77940000 42.76290000 32.17640000
4337 3 9.64876000 42.17860000 31.76150000
4338 3 10.16850000 42.64510000 33.46460000
4339 3 11.89410000 42.22760000 31.18460000
4340 3 12.42980000 42.08060000 32.86520000
4341 1 43.04050000 2.89880000 43.58220000
4342 2 42.83830000 1.88717000 0.54569100
4343 2 42.24180000 3.90867000 43.56020000
4344 2 0.36399500 3.08818000 42.79650000
4345 1 42.73690000 4.92303000 42.70130000
4346 1 0.49336000 4.48893000 42.57640000
4347 3 42.42620000 5.90814000 43.02680000
4348 3 42.23420000 4.89870000 41.73990000
4349 3 1.04281000 5.01555000 43.37250000
4350 3 0.92656500 4.70981000 41.66840000
4351 1 12.38940000 30.26840000 1.62572000
4352 2 12.85620000 31.20050000 2.33843000
4353 2 11.90480000 30.41930000 0.32472300
4354 2 12.31040000 29.00030000 2.04809000
4355 1 11.35870000 29.22280000 43.66740000
4356 1 11.80510000 28.20170000 1.08780000
4357 3 11.65320000 28.98810000 42.62730000
4358 3 10.31430000 29.23910000 43.68910000
4359 3 12.63980000 27.58870000 0.64630200
4360 3 11.06960000 27.46410000 1.38606000
4361 1 21.53220000 12.92930000 11.48380000
4362 2 20.54920000 12.77260000 10.77490000
4363 2 22.65410000 13.42240000 10.98530000
4364 2 21.70960000 12.67370000 12.77060000
4365 1 23.53440000 13.65350000 12.00640000
4366 1 22.99260000 12.97510000 13.24850000
4367 3 23.71140000 14.70370000 12.02450000
4368 3 24.41610000 13.14000000 11.88410000
4369 3 22.90030000 13.57940000 14.15900000
4370 3 23.61010000 12.07400000 13.45760000
4371 1 15.27900000 8.26354000 10.45180000
4372 2 14.79960000 8.71350000 11.46100000
4373 2 14.64880000 7.38826000 9.68127000
4374 2 16.48320000 8.57485000 9.92168000
4375 1 15.43500000 7.06264000 8.58536000
4376 1 16.65620000 7.85729000 8.68324000
4377 3 14.81360000 7.30659000 7.73139000
4378 3 15.52480000 6.00807000 8.65278000
4379 3 16.58070000 8.57449000 7.74054000
4380 3 17.51890000 7.22399000 8.61990000
4381 1 20.80430000 25.06850000 22.52980000
4382 2 21.19640000 24.05400000 23.05920000
4383 2 19.71320000 25.72150000 22.75080000
4384 2 21.34650000 25.58410000 21.45530000
4385 1 19.56760000 26.90330000 21.83460000
4386 1 20.85400000 26.78970000 21.05400000
4387 3 19.49420000 27.84710000 22.35140000
4388 3 18.66070000 26.87040000 21.29640000
4389 3 21.45210000 27.68560000 21.39550000
4390 3 20.72890000 26.77330000 19.98430000
4391 1 22.80720000 40.84940000 3.93070000
4392 2 23.20620000 41.55050000 2.96589000
4393 2 21.99940000 41.21450000 4.92680000
4394 2 23.12660000 39.52390000 4.17642000
4395 1 21.60240000 40.09600000 5.72013000
4396 1 22.73610000 39.12900000 5.48624000
4397 3 20.74780000 39.65140000 5.26771000
4398 3 21.50040000 40.30440000 6.80426000
4399 3 22.30000000 38.13540000 5.45237000
4400 3 23.48790000 39.26940000 6.25433000
4401 1 12.69220000 11.36620000 15.17090000
4402 2 12.09870000 12.00200000 16.06490000
4403 2 13.65540000 11.79730000 14.44380000
4404 2 12.34160000 10.15390000 14.79520000
4405 1 13.93210000 10.88470000 13.37230000
4406 1 12.78260000 9.89063000 13.46000000
4407 3 14.83760000 10.45710000 13.71840000
4408 3 14.12090000 11.37320000 12.39520000
4409 3 12.99750000 8.85530000 13.25660000
4410 3 11.98720000 10.14030000 12.81860000
4411 1 26.56820000 22.13180000 34.76840000
4412 2 27.18310000 21.55950000 33.90930000
4413 2 26.97920000 22.53980000 35.97620000
4414 2 25.26100000 22.40690000 34.61240000
4415 1 25.97480000 23.06790000 36.78290000
4416 1 24.70490000 22.96970000 35.85260000
4417 3 26.21810000 24.05170000 37.12080000
4418 3 25.79270000 22.50750000 37.72920000
4419 3 24.37620000 24.03660000 35.67340000
4420 3 23.96790000 22.33850000 36.35220000
4421 1 0.24596100 9.84375000 21.37490000
4422 2 0.20394300 9.35243000 22.44300000
4423 2 42.95740000 9.71655000 20.47620000
4424 2 1.27793000 10.65900000 20.85540000
4425 1 43.20680000 10.38880000 19.29890000
4426 1 0.92547900 11.00870000 19.49840000
4427 3 42.37620000 11.09510000 19.26060000
4428 3 43.23080000 9.60059000 18.53260000
4429 3 0.87233100 12.04980000 19.33360000
4430 3 1.64652000 10.58980000 18.80750000
4431 1 23.09480000 20.78230000 6.77297000
4432 2 24.26080000 21.13070000 6.68421000
4433 2 22.66150000 19.59310000 6.50265000
4434 2 22.10220000 21.54270000 7.22010000
4435 1 21.31460000 19.45710000 6.85992000
4436 1 20.91430000 20.86340000 6.91675000
4437 3 21.28010000 19.10000000 7.91839000
4438 3 20.77880000 18.83660000 6.21374000
4439 3 20.09430000 20.94800000 7.62403000
4440 3 20.60980000 21.11970000 5.93090000
4441 1 21.50280000 42.10020000 22.18850000
4442 2 22.02530000 41.38060000 23.00280000
4443 2 21.33740000 41.77110000 20.90320000
4444 2 21.16920000 43.37260000 22.30610000
4445 1 20.51160000 42.66650000 20.22510000
4446 1 20.74380000 0.22253900 21.08210000
4447 3 19.45340000 42.37720000 20.32600000
4448 3 20.71370000 42.67130000 19.11340000
4449 3 19.90130000 0.87329900 21.31200000
4450 3 21.58370000 0.78698500 20.84120000
4451 1 37.21830000 39.68630000 40.01050000
4452 2 36.64420000 38.64850000 40.33210000
4453 2 37.01540000 40.32820000 38.85760000
4454 2 38.23200000 40.22690000 40.61710000
4455 1 37.73290000 41.53740000 38.80490000
4456 1 38.73110000 41.33840000 39.90760000
4457 3 37.07330000 42.33650000 39.04210000
4458 3 38.18520000 41.89910000 37.87510000
4459 3 38.74830000 42.15780000 40.52840000
4460 3 39.67340000 41.06560000 39.58460000
4461 1 7.42419000 42.13740000 25.20160000
4462 2 7.43671000 43.31720000 25.54640000
4463 2 6.69819000 41.21450000 25.79410000
4464 2 8.15450000 41.58850000 24.27900000
4465 1 7.07925000 39.86760000 25.52540000
4466 1 7.74608000 40.16460000 24.18580000
4467 3 6.34934000 39.03940000 25.44460000
4468 3 7.88636000 39.51030000 26.11760000
4469 3 7.10915000 40.02710000 23.36920000
4470 3 8.52406000 39.48180000 24.02910000
4471 1 31.62360000 1.50411000 8.55745000
4472 2 32.16210000 1.72202000 9.62536000
4473 2 30.36090000 1.77969000 8.30546000
4474 2 32.26720000 1.24184000 7.41351000
4475 1 30.10450000 1.85218000 6.90411000
4476 1 31.40110000 1.25937000 6.28466000
4477 3 29.90870000 2.91416000 6.67533000
4478 3 29.18670000 1.38341000 6.71585000
4479 3 31.85560000 1.77450000 5.38994000
4480 3 31.03750000 0.26721100 6.00094000
4481 1 17.34540000 11.30060000 20.34390000
4482 2 17.19920000 11.14550000 19.12670000
4483 2 17.02110000 12.38890000 20.98960000
4484 2 17.96800000 10.49440000 21.11100000
4485 1 17.42170000 12.34290000 22.35890000
4486 1 18.03400000 10.91330000 22.47800000
4487 3 16.62460000 12.45030000 23.13750000
4488 3 18.30680000 12.95480000 22.62410000
4489 3 17.52050000 10.27420000 23.18340000
4490 3 19.10350000 11.09160000 22.80640000
4491 1 40.60000000 32.64270000 23.71320000
4492 2 40.68250000 33.87740000 23.57040000
4493 2 41.56730000 31.86590000 24.26260000
4494 2 39.73340000 31.91190000 23.19940000
4495 1 41.18090000 30.47900000 24.31530000
4496 1 40.00820000 30.51410000 23.34190000
4497 3 40.63500000 30.28270000 25.22500000
4498 3 41.93950000 29.70410000 24.20150000
4499 3 39.13390000 29.97060000 23.61660000
4500 3 40.27960000 30.14040000 22.34010000
4501 1 13.54860000 35.66840000 6.45659000
4502 2 14.00740000 36.12990000 5.45303000
4503 2 13.47940000 36.42140000 7.53859000
4504 2 13.02510000 34.49340000 6.63525000
4505 1 12.89130000 35.72440000 8.59094000
4506 1 12.43220000 34.40910000 7.89670000
4507 3 12.13990000 36.24540000 9.18901000
4508 3 13.62920000 35.47880000 9.35816000
4509 3 11.30660000 34.22880000 7.67932000
4510 3 12.78830000 33.55060000 8.50338000
4511 1 18.06170000 5.23937000 36.91650000
4512 2 17.18590000 4.73592000 37.54150000
4513 2 19.18790000 5.64474000 37.40780000
4514 2 18.09180000 5.42331000 35.63010000
4515 1 20.04150000 6.28877000 36.53330000
4516 1 19.28090000 6.10575000 35.21580000
4517 3 21.02540000 5.85504000 36.46130000
4518 3 20.21690000 7.37478000 36.72470000
4519 3 19.59780000 5.39829000 34.56230000
4520 3 19.07330000 7.00429000 34.70590000
4521 1 42.18670000 29.00450000 3.54893000
4522 2 41.74350000 27.93080000 3.96921000
4523 2 42.35680000 30.08600000 4.22856000
4524 2 42.45120000 29.28290000 2.26685000
4525 1 42.85850000 31.12110000 3.47636000
4526 1 42.81520000 30.60950000 2.02548000
4527 3 0.14253300 31.24260000 3.85597000
4528 3 42.31310000 32.02940000 3.45317000
4529 3 43.77890000 30.69360000 1.42279000
4530 3 42.00470000 31.08670000 1.52711000
4531 1 3.97389000 3.12260000 18.79520000
4532 2 4.20310000 1.97954000 19.13150000
4533 2 4.30177000 4.16352000 19.57010000
4534 2 3.48958000 3.51828000 17.64730000
4535 1 4.39724000 5.32415000 18.77810000
4536 1 3.37744000 4.93840000 17.61030000
4537 3 5.51058000 5.26032000 18.39270000
4538 3 4.19721000 6.32250000 19.25070000
4539 3 3.70565000 5.33921000 16.64710000
4540 3 2.35948000 5.21173000 17.81040000
4541 1 39.35100000 42.90140000 1.04399000
4542 2 38.21840000 42.76240000 1.37409000
4543 2 39.69980000 43.59760000 43.67190000
4544 2 40.46020000 42.45160000 1.61056000
4545 1 40.92430000 43.19180000 43.16670000
4546 1 41.57530000 42.73550000 0.72059900
4547 3 41.41940000 0.21157100 42.55170000
4548 3 40.72970000 42.28880000 42.59060000
4549 3 42.21180000 43.49200000 1.18842000
4550 3 42.19670000 41.81290000 0.47763900
4551 1 29.81050000 37.22940000 7.49313000
4552 2 29.28340000 37.22720000 6.40877000
4553 2 29.36450000 37.99990000 8.51707000
4554 2 30.92390000 36.61490000 7.81393000
4555 1 30.26990000 37.91870000 9.63352000
4556 1 31.30970000 36.95380000 9.10209000
4557 3 29.86160000 37.43180000 10.49900000
4558 3 30.61700000 38.88390000 9.94595000
4559 3 31.41800000 36.06280000 9.67695000
4560 3 32.26220000 37.48690000 9.05625000
4561 1 39.22360000 25.46380000 0.90756000
4562 2 39.48100000 24.41610000 1.48212000
4563 2 39.12360000 25.72390000 43.34120000
4564 2 39.05230000 26.61780000 1.56107000
4565 1 38.97720000 27.09770000 42.98880000
4566 1 39.04670000 27.72860000 0.69260400
4567 3 38.00080000 27.16660000 42.45500000
4568 3 39.88690000 27.51360000 42.51030000
4569 3 38.15020000 28.31840000 0.83134900
4570 3 39.88840000 28.30290000 0.85415000
4571 1 18.70900000 5.02627000 42.56580000
4572 2 18.91560000 5.17947000 43.73850000
4573 2 17.57240000 5.32307000 41.91140000
4574 2 19.49640000 4.23121000 41.85590000
4575 1 17.70100000 4.94871000 40.55650000
4576 1 18.94700000 3.99726000 40.54180000
4577 3 17.80460000 5.80608000 40.00660000
4578 3 16.74910000 4.43190000 40.15860000
4579 3 19.52140000 4.40512000 39.68950000
4580 3 18.66040000 2.99689000 40.39690000
4581 1 2.48831000 28.21270000 12.63670000
4582 2 3.55152000 27.61260000 12.81740000
4583 2 1.36475000 27.74190000 12.00510000
4584 2 2.22176000 29.44200000 13.15160000
4585 1 0.29971600 28.68080000 12.15150000
4586 1 0.90842800 29.82490000 13.05120000
4587 3 43.18060000 28.38990000 12.78220000
4588 3 43.67400000 29.10450000 11.26350000
4589 3 0.49552400 29.72840000 14.06260000
4590 3 0.78699200 30.84270000 12.67770000
4591 1 18.71140000 43.77890000 5.47973000
4592 2 19.05620000 0.59620100 6.50332000
4593 2 19.24830000 42.63700000 4.96947000
4594 2 17.72160000 0.51408000 4.71861000
4595 1 18.46630000 42.13630000 3.91808000
4596 1 17.61000000 43.35130000 3.58455000
4597 3 17.81530000 41.34020000 4.31956000
4598 3 18.94160000 41.82120000 3.03815000
4599 3 16.59900000 43.11320000 3.41314000
4600 3 18.02330000 0.16753200 2.69355000
4601 1 11.04990000 13.57390000 4.67369000
4602 2 12.19520000 13.36580000 5.03158000
4603 2 10.10670000 12.78960000 4.98358000
4604 2 10.59530000 14.72040000 4.14186000
4605 1 8.83289000 13.36910000 4.51564000
4606 1 9.17968000 14.77640000 4.16504000
4607 3 8.04085000 13.37000000 5.23985000
4608 3 8.47024000 12.85640000 3.63877000
4609 3 8.74854000 15.47820000 4.87455000
4610 3 8.68413000 14.95080000 3.20112000
4611 1 7.37983000 9.67651000 43.52930000
4612 2 8.15205000 9.34744000 42.66600000
4613 2 7.70577000 10.29830000 0.97461800
4614 2 6.11983000 9.42064000 43.51250000
4615 1 6.61815000 10.33290000 1.82188000
4616 1 5.47548000 10.05880000 0.90512200
4617 3 6.56484000 11.39140000 2.26501000
4618 3 6.62171000 9.54796000 2.61306000
4619 3 5.11526000 10.97600000 0.41151200
4620 3 4.59103000 9.46381000 1.28086000
4621 1 2.22407000 25.88070000 8.52235000
4622 2 1.26683000 26.12410000 7.79788000
4623 2 3.14894000 26.74500000 8.79069000
4624 2 2.41485000 24.82630000 9.24493000
4625 1 4.05227000 26.31180000 9.74033000
4626 1 3.47234000 24.99930000 10.16220000
4627 3 4.10197000 26.96980000 10.64060000
4628 3 5.04501000 26.20690000 9.39445000
4629 3 2.99403000 25.14640000 11.10660000
4630 3 4.09418000 24.14930000 10.15290000
4631 1 15.95820000 28.48490000 38.08330000
4632 2 16.11630000 28.90220000 39.22850000
4633 2 14.79640000 28.41570000 37.41780000
4634 2 16.94930000 28.08120000 37.32970000
4635 1 14.94740000 27.90990000 36.06600000
4636 1 16.51460000 27.66810000 36.01390000
4637 3 14.54470000 28.49870000 35.27750000
4638 3 14.56750000 26.94740000 36.07260000
4639 3 16.87440000 28.16600000 35.12720000
4640 3 16.65590000 26.60980000 35.84590000
4641 1 5.71920000 12.30530000 28.17260000
4642 2 5.40337000 12.66000000 29.30490000
4643 2 6.82519000 11.74260000 27.78030000
4644 2 4.92547000 12.31750000 27.13210000
4645 1 6.82559000 11.30410000 26.45350000
4646 1 5.58969000 12.01080000 25.93260000
4647 3 6.66469000 10.26730000 26.29050000
4648 3 7.64276000 11.66070000 25.86960000
4649 3 4.95246000 11.55290000 25.12500000
4650 3 5.77002000 12.99040000 25.52640000
4651 1 42.29440000 40.60650000 30.10260000
4652 2 42.71300000 40.64600000 28.95460000
4653 2 42.34820000 41.61040000 30.95940000
4654 2 41.63700000 39.56140000 30.62630000
4655 1 41.60450000 41.33250000 32.09440000
4656 1 41.40170000 39.79720000 31.94680000
4657 3 40.65530000 41.83580000 31.97560000
4658 3 41.98370000 41.61650000 33.01700000
4659 3 40.40000000 39.44730000 32.28520000
4660 3 42.08410000 39.21610000 32.50180000
4661 1 42.91640000 27.48180000 31.24490000
4662 2 41.95910000 27.24560000 30.50640000
4663 2 0.48844500 27.14220000 30.94120000
4664 2 42.92920000 28.16320000 32.43310000
4665 1 1.30108000 27.27680000 32.08870000
4666 1 0.58550000 28.38190000 32.87770000
4667 3 2.30608000 27.50020000 31.86610000
4668 3 1.28938000 26.47510000 32.78990000
4669 3 1.07162000 29.42160000 32.58230000
4670 3 0.70023600 28.32730000 33.87870000
4671 1 32.74180000 11.35030000 21.04030000
4672 2 33.39750000 11.93370000 21.93740000
4673 2 32.88490000 10.12370000 20.71500000
4674 2 31.87410000 11.92180000 20.28260000
4675 1 31.97470000 9.74444000 19.74200000
4676 1 31.11550000 10.98850000 19.50210000
4677 3 31.41650000 8.87819000 20.14670000
4678 3 32.42470000 9.39274000 18.88890000
4679 3 30.11230000 10.84820000 19.81810000
4680 3 31.14720000 11.25080000 18.40780000
4681 1 9.10770000 5.73377000 3.71827000
4682 2 8.42585000 5.92269000 2.73846000
4683 2 10.39460000 5.46134000 3.77321000
4684 2 8.59647000 5.76102000 4.90510000
4685 1 10.82660000 5.44182000 5.15579000
4686 1 9.57701000 5.64296000 5.96352000
4687 3 11.62910000 6.18163000 5.23319000
4688 3 11.43090000 4.56928000 5.44786000
4689 3 9.76572000 6.57405000 6.60678000
4690 3 9.49276000 4.81526000 6.63613000
4691 1 41.44860000 0.64627800 39.47750000
4692 2 40.86180000 43.27790000 39.76840000
4693 2 42.52480000 1.09293000 40.01340000
4694 2 40.99240000 1.48930000 38.51030000
4695 1 42.77870000 2.39945000 39.53220000
4696 1 41.78390000 2.64217000 38.47940000
4697 3 43.81290000 2.51645000 39.20510000
4698 3 42.65340000 3.00461000 40.43190000
4699 3 42.19710000 2.69990000 37.50110000
4700 3 41.21950000 3.61951000 38.60720000
4701 1 1.12894000 6.30103000 20.50440000
4702 2 1.65232000 6.90698000 19.54120000
4703 2 43.54930000 6.32396000 20.84010000
4704 2 1.80517000 5.71325000 21.53360000
4705 1 43.32290000 5.92336000 22.15920000
4706 1 0.94736600 5.40458000 22.61790000
4707 3 42.56600000 5.21916000 22.26340000
4708 3 42.94250000 6.82216000 22.55920000
4709 3 0.83988000 4.36435000 22.89480000
4710 3 1.23459000 5.88797000 23.46730000
4711 1 8.93859000 27.90280000 31.21660000
4712 2 9.34424000 27.58050000 32.31970000
4713 2 9.66759000 27.91810000 30.07470000
4714 2 7.68314000 28.18910000 30.90680000
4715 1 8.85619000 27.99610000 28.95350000
4716 1 7.50936000 28.53990000 29.56570000
4717 3 8.66533000 26.97460000 28.63350000
4718 3 9.27563000 28.53850000 28.11600000
4719 3 6.69132000 27.90880000 29.24070000
4720 3 7.42239000 29.59670000 29.35470000
4721 1 23.35180000 33.13460000 31.60720000
4722 2 24.14670000 32.31960000 31.23600000
4723 2 22.53860000 33.76400000 30.86690000
4724 2 23.15210000 33.42820000 32.85280000
4725 1 21.48890000 34.35090000 31.59860000
4726 1 22.16730000 34.44320000 32.98100000
4727 3 20.57560000 33.86870000 31.62050000
4728 3 21.16030000 35.30890000 31.17310000
4729 3 21.54030000 34.25650000 33.88220000
4730 3 22.75580000 35.36490000 32.96780000
4731 1 40.22260000 2.55093000 34.90040000
4732 2 41.06390000 3.39267000 35.10950000
4733 2 39.01170000 2.81972000 34.51380000
4734 2 40.39420000 1.30995000 35.13490000
4735 1 38.30480000 1.59116000 34.39760000
4736 1 39.34460000 0.52522500 34.60170000
4737 3 37.92540000 1.51793000 33.32600000
4738 3 37.56810000 1.55973000 35.09690000
4739 3 39.50530000 43.64340000 33.68460000
4740 3 38.91950000 43.49080000 35.36610000
4741 1 22.07080000 25.74900000 16.83380000
4742 2 22.74620000 24.82590000 17.13630000
4743 2 22.25080000 26.41090000 15.65240000
4744 2 21.12440000 26.31450000 17.59860000
4745 1 21.31640000 27.41420000 15.54510000
4746 1 20.57560000 27.41870000 16.90540000
4747 3 20.61720000 27.25580000 14.73000000
4748 3 21.86620000 28.23880000 15.26120000
4749 3 19.49740000 27.19630000 16.66130000
4750 3 20.64770000 28.34090000 17.36360000
4751 1 5.92028000 26.78350000 25.72630000
4752 2 6.86084000 27.44430000 26.15560000
4753 2 4.76303000 27.19700000 25.19340000
4754 2 5.92896000 25.47350000 25.55510000
4755 1 3.84209000 26.16710000 24.95840000
4756 1 4.76229000 24.90950000 25.11860000
4757 3 3.25735000 26.36850000 24.04100000
4758 3 3.11832000 26.26120000 25.86480000
4759 3 5.02058000 24.44210000 24.13200000
4760 3 4.25678000 24.22400000 25.80330000
4761 1 11.48640000 30.22460000 16.35870000
4762 2 12.08790000 30.38930000 15.32250000
4763 2 11.20720000 29.11680000 16.98490000
4764 2 11.12280000 31.19530000 17.20590000
4765 1 10.41440000 29.23680000 18.15050000
4766 1 10.60590000 30.71240000 18.44170000
4767 3 10.71580000 28.58260000 18.95480000
4768 3 9.38098000 28.99890000 17.95810000
4769 3 11.29790000 30.90160000 19.20550000
4770 3 9.60608000 31.13810000 18.66390000
4771 1 34.18980000 16.98620000 33.67680000
4772 2 34.99190000 17.62510000 34.28430000
4773 2 33.47180000 17.40380000 32.70170000
4774 2 33.85470000 15.76690000 34.04780000
4775 1 32.64330000 16.40940000 32.23380000
4776 1 32.64390000 15.32570000 33.39370000
4777 3 33.13530000 15.90040000 31.41410000
4778 3 31.62480000 16.85240000 32.09660000
4779 3 32.74670000 14.27520000 33.07790000
4780 3 31.84250000 15.19840000 34.10150000
4781 1 22.77320000 39.44900000 15.46130000
4782 2 22.88120000 40.46680000 16.08460000
4783 2 21.72550000 39.11310000 14.81290000
4784 2 23.70180000 38.54220000 15.35300000
4785 1 21.83940000 37.76900000 14.24620000
4786 1 23.40590000 37.61340000 14.30700000
4787 3 21.40360000 37.60370000 13.25410000
4788 3 21.25800000 37.09230000 14.91380000
4789 3 23.89960000 37.91720000 13.40490000
4790 3 23.73960000 36.67600000 14.45870000
4791 1 37.16520000 2.42662000 4.09104000
4792 2 38.07290000 3.05557000 4.64602000
4793 2 37.23540000 1.18211000 3.70760000
4794 2 35.95920000 2.90126000 3.74654000
4795 1 36.03060000 0.75258000 3.04412000
4796 1 35.20930000 2.01924000 3.09215000
4797 3 35.46870000 43.59480000 3.35460000
4798 3 36.33750000 0.50200000 2.04500000
4799 3 34.34960000 1.82621000 3.69278000
4800 3 34.98570000 2.37673000 2.07841000
4801 1 26.35080000 11.08410000 29.92810000
4802 2 27.46330000 11.61100000 30.08710000
4803 2 25.23120000 11.70230000 30.27660000
4804 2 26.01620000 9.90604000 29.40090000
4805 1 24.08370000 10.94620000 30.04070000
4806 1 24.63250000 9.64993000 29.47100000
4807 3 23.49140000 11.32240000 29.25830000
4808 3 23.55060000 10.81820000 30.95020000
4809 3 24.21210000 9.45469000 28.43730000
4810 3 24.43750000 8.79442000 30.14040000
4811 1 41.46120000 37.94600000 21.26220000
4812 2 42.63140000 38.14850000 20.92710000
4813 2 40.80170000 38.89760000 21.88350000
4814 2 40.70760000 36.83550000 21.20270000
4815 1 39.47970000 38.54860000 22.05660000
4816 1 39.47740000 37.02690000 21.80280000
4817 3 38.84280000 39.10400000 21.41210000
4818 3 39.28610000 38.73720000 23.14280000
4819 3 38.60420000 36.67030000 21.30860000
4820 3 39.49300000 36.48680000 22.78150000
4821 1 26.83650000 8.61602000 26.57310000
4822 2 26.62820000 7.43187000 26.57470000
4823 2 27.90120000 9.20417000 26.90770000
4824 2 25.89950000 9.54083000 26.32070000
4825 1 27.98200000 10.55690000 26.55870000
4826 1 26.51010000 10.82350000 26.11820000
4827 3 28.80560000 10.66090000 25.81850000
4828 3 28.31620000 11.07880000 27.42830000
4829 3 26.48010000 11.10920000 25.10110000
4830 3 26.04160000 11.53140000 26.68070000
4831 1 40.01570000 19.15950000 25.12680000
4832 2 40.77320000 19.52980000 26.00870000
4833 2 38.72620000 19.52380000 24.87850000
4834 2 40.31700000 18.29580000 24.13230000
4835 1 38.33130000 19.03790000 23.62890000
4836 1 39.22530000 17.76370000 23.46620000
4837 3 38.53110000 19.72870000 22.88230000
4838 3 37.27860000 18.76290000 23.58210000
4839 3 39.44490000 17.38760000 22.45120000
4840 3 38.77850000 16.98490000 24.09580000
4841 1 22.89780000 21.52190000 38.77620000
4842 2 23.78310000 20.64410000 38.73760000
4843 2 22.53220000 22.19650000 39.90770000
4844 2 22.09640000 21.88780000 37.71670000
4845 1 21.60840000 23.14180000 39.61020000
4846 1 21.13140000 22.77830000 38.21140000
4847 3 22.21650000 24.12320000 39.65070000
4848 3 20.69060000 23.21530000 40.32910000
4849 3 20.87810000 23.50400000 37.52350000
4850 3 20.29490000 22.11750000 38.35100000
4851 1 32.85710000 14.91620000 42.40320000
4852 2 32.91520000 13.65800000 42.57350000
4853 2 33.33190000 15.90400000 43.21230000
4854 2 32.40760000 15.45820000 41.32660000
4855 1 33.09620000 17.20920000 42.67640000
4856 1 32.34870000 16.90970000 41.42420000
4857 3 33.97850000 17.84780000 42.66360000
4858 3 32.39770000 17.71510000 43.30390000
4859 3 32.84270000 17.16460000 40.43460000
4860 3 31.33040000 17.38390000 41.39150000
4861 1 25.97390000 37.27550000 4.30107000
4862 2 25.88920000 37.78700000 3.16823000
4863 2 25.93590000 37.96680000 5.45625000
4864 2 25.97470000 36.01470000 4.60405000
4865 1 25.90560000 37.17460000 6.58085000
4866 1 26.15910000 35.74910000 6.05937000
4867 3 24.94870000 37.30410000 7.06272000
4868 3 26.61760000 37.40410000 7.29712000
4869 3 25.48090000 34.96280000 6.49460000
4870 3 27.21510000 35.48420000 6.06673000
4871 1 20.54130000 13.35220000 0.45735700
4872 2 20.14160000 12.57220000 43.28640000
4873 2 20.24330000 14.62480000 0.56329900
4874 2 21.50620000 13.12700000 1.33871000
4875 1 20.73990000 15.27550000 1.73226000
4876 1 21.74590000 14.20880000 2.13873000
4877 3 20.02190000 15.62920000 2.50273000
4878 3 21.25130000 16.15560000 1.51987000
4879 3 21.55560000 13.86620000 3.15038000
4880 3 22.67570000 14.66560000 1.94866000
4881 1 5.60983000 25.79940000 6.22506000
4882 2 4.45692000 25.34940000 6.19830000
4883 2 6.08062000 27.00690000 5.75697000
4884 2 6.72944000 25.22690000 6.84203000
4885 1 7.49037000 27.22220000 5.93206000
4886 1 7.82474000 26.06450000 6.93695000
4887 3 7.68815000 28.18300000 6.42047000
4888 3 8.08183000 27.09810000 5.00762000
4889 3 7.89041000 26.50300000 7.96811000
4890 3 8.83549000 25.65290000 6.79867000
4891 1 6.97362000 21.53040000 9.50105000
4892 2 7.96918000 21.67740000 10.23910000
4893 2 7.05215000 20.92010000 8.30623000
4894 2 5.83873000 22.23900000 9.53559000
4895 1 6.05821000 21.34330000 7.47271000
4896 1 5.05420000 22.15480000 8.32828000
4897 3 5.58276000 20.49210000 7.04895000
4898 3 6.52753000 21.84920000 6.63492000
4899 3 4.18505000 21.60070000 8.45688000
4900 3 4.82747000 23.08150000 7.91674000
4901 1 31.61330000 4.94061000 20.38730000
4902 2 30.96950000 4.11791000 21.05480000
4903 2 32.85420000 5.40207000 20.68780000
4904 2 31.27460000 5.43660000 19.18720000
4905 1 33.36810000 6.30592000 19.77010000
4906 1 32.31960000 6.21321000 18.63410000
4907 3 34.45480000 6.03203000 19.42800000
4908 3 33.31420000 7.23357000 20.32230000
4909 3 32.76020000 5.66961000 17.79260000
4910 3 31.95290000 7.14019000 18.27060000
4911 1 1.14403000 36.12260000 42.06920000
4912 2 2.30877000 36.32500000 42.40450000
4913 2 0.24023800 36.98780000 42.36820000
4914 2 0.62372300 35.01990000 41.71840000
4915 1 42.58960000 36.53470000 42.14930000
4916 1 42.93100000 35.09770000 41.73140000
4917 3 41.97440000 37.05900000 41.48450000
4918 3 42.12410000 36.38730000 43.11610000
4919 3 42.54820000 34.90550000 40.81340000
4920 3 42.47130000 34.32020000 42.28650000
4921 1 22.79960000 19.28900000 34.46950000
4922 2 21.75830000 19.66980000 35.06260000
4923 2 23.87650000 18.56880000 35.00920000
4924 2 23.07790000 19.46460000 33.14430000
4925 1 24.85450000 18.42900000 34.05190000
4926 1 24.17950000 18.71550000 32.72410000
4927 3 25.25920000 17.42100000 34.03830000
4928 3 25.53860000 19.19370000 34.27080000
4929 3 23.78800000 17.81260000 32.21630000
4930 3 24.87210000 19.24800000 32.15710000
4931 1 27.12080000 43.73130000 17.43110000
4932 2 26.26760000 0.16804400 16.60450000
4933 2 27.84990000 0.98884100 17.99170000
4934 2 27.44840000 42.53750000 17.94190000
4935 1 28.92730000 0.37477800 18.66410000
4936 1 28.28650000 42.70620000 19.04040000
4937 3 29.18610000 0.82306400 19.59610000
4938 3 29.70820000 43.77110000 17.97530000
4939 3 27.80150000 42.66400000 20.00330000
4940 3 28.93640000 41.90320000 19.22870000
4941 1 3.01454000 38.02270000 23.86380000
4942 2 2.88898000 37.18270000 24.73260000
4943 2 2.06563000 38.52700000 23.12850000
4944 2 4.16247000 38.67020000 23.56810000
4945 1 2.51608000 39.65800000 22.37390000
4946 1 4.01028000 39.44220000 22.48170000
4947 3 2.01108000 40.58080000 22.84910000
4948 3 2.16699000 39.58860000 21.31570000
4949 3 4.49814000 40.43610000 22.54060000
4950 3 4.24887000 38.95130000 21.59840000
4951 1 31.57350000 43.44900000 1.73234000
4952 2 32.19360000 43.78410000 2.74016000
4953 2 30.20590000 43.21260000 1.65910000
4954 2 31.96420000 43.14230000 0.46795900
4955 1 29.73080000 43.01130000 0.37174600
4956 1 30.97820000 42.93190000 43.27740000
4957 3 29.19030000 43.79580000 43.59320000
4958 3 29.15440000 42.03280000 0.26369800
4959 3 30.98900000 43.64760000 42.43150000
4960 3 31.05520000 42.00920000 42.72880000
4961 1 10.12710000 37.77120000 10.80960000
4962 2 10.27030000 37.59720000 9.66778000
4963 2 8.98831000 37.81410000 11.48460000
4964 2 11.14200000 37.76430000 11.59430000
4965 1 9.22899000 38.00220000 12.79230000
4966 1 10.73280000 37.69770000 12.93030000
4967 3 8.73342000 37.22210000 13.46480000
4968 3 8.83142000 38.97670000 13.06190000
4969 3 11.03180000 36.73150000 13.35150000
4970 3 11.26650000 38.46330000 13.46350000
4971 1 38.98220000 4.09408000 42.01550000
4972 2 39.86610000 4.88378000 41.69810000
4973 2 37.77310000 4.19458000 41.68350000
4974 2 39.06210000 3.18929000 42.91780000
4975 1 36.96760000 3.56156000 42.59780000
4976 1 37.90740000 2.49147000 43.08880000
4977 3 36.04760000 3.09757000 42.14960000
4978 3 36.65470000 4.27030000 43.35530000
4979 3 37.89850000 1.67056000 42.45660000
4980 3 37.65490000 2.25481000 0.45869800
4981 1 21.68190000 5.35705000 32.34650000
4982 2 22.06150000 5.75014000 33.45730000
4983 2 20.46450000 5.46189000 31.88760000
4984 2 22.30690000 4.65285000 31.51150000
4985 1 20.20950000 4.76458000 30.64660000
4986 1 21.57620000 4.28056000 30.36590000
4987 3 19.96460000 5.52913000 29.85930000
4988 3 19.35260000 4.06885000 30.76480000
4989 3 22.12440000 4.58847000 29.46390000
4990 3 21.53530000 3.21789000 30.37370000
4991 1 31.43360000 13.09520000 15.61630000
4992 2 30.96150000 12.18940000 14.92070000
4993 2 32.54200000 13.81990000 15.46450000
4994 2 30.93760000 13.46220000 16.79170000
4995 1 32.93840000 14.33220000 16.71800000
4996 1 31.69240000 14.35770000 17.56170000
4997 3 33.44670000 15.28260000 16.49230000
4998 3 33.66090000 13.60940000 17.15540000
4999 3 31.34100000 15.40770000 17.54190000
5000 3 31.87650000 14.02460000 18.63850000
5001 1 9.89664000 24.68890000 10.78510000
5002 2 9.50875000 25.64860000 11.39210000
5003 2 10.57680000 23.63770000 11.30030000
5004 2 9.69271000 24.50490000 9.50083000
5005 1 10.89090000 22.75370000 10.25080000
5006 1 10.25270000 23.32230000 9.00922000
5007 3 10.58380000 21.69620000 10.46530000
5008 3 12.03000000 22.71290000 10.01510000
5009 3 9.51209000 22.66780000 8.52459000
5010 3 11.03870000 23.60050000 8.31830000
5011 1 17.85820000 2.96277000 33.12410000
5012 2 19.08130000 2.95966000 33.19720000
5013 2 17.10160000 3.94284000 32.52920000
5014 2 17.10970000 1.95912000 33.46890000
5015 1 15.74550000 3.65438000 32.70020000
5016 1 15.74250000 2.27394000 33.35220000
5017 3 15.18300000 3.63171000 31.77510000
5018 3 15.30950000 4.42620000 33.33700000
5019 3 15.26960000 1.42762000 32.77990000
5020 3 15.31880000 2.31494000 34.38320000
5021 1 8.03955000 5.96524000 30.28560000
5022 2 6.94427000 6.47608000 30.25930000
5023 2 8.99788000 6.27228000 31.07400000
5024 2 8.39952000 4.94588000 29.55850000
5025 1 9.93813000 5.23711000 31.12890000
5026 1 9.71935000 4.57325000 29.82960000
5027 3 9.57791000 4.56285000 31.89620000
5028 3 10.97160000 5.46361000 31.37810000
5029 3 9.71216000 3.49374000 29.96820000
5030 3 10.32540000 4.99819000 29.08010000
5031 1 39.68900000 3.48428000 31.52530000
5032 2 39.97030000 2.28616000 31.78480000
5033 2 38.42710000 3.99428000 31.38690000
5034 2 40.65080000 4.47717000 31.30300000
5035 1 38.54630000 5.46526000 31.35550000
5036 1 39.96540000 5.69333000 31.05120000
5037 3 38.36080000 5.84530000 32.41480000
5038 3 37.79930000 5.90683000 30.68430000
5039 3 40.42400000 6.45550000 31.71830000
5040 3 40.05740000 6.07363000 29.99360000
5041 1 23.09470000 10.78390000 16.63160000
5042 2 22.30470000 11.65090000 16.86180000
5043 2 24.45890000 10.94420000 16.57420000
5044 2 22.73760000 9.58060000 16.18960000
5045 1 25.04020000 9.75043000 16.08050000
5046 1 23.86870000 8.75744000 15.97170000
5047 3 25.70600000 9.44404000 16.92810000
5048 3 25.61090000 9.92936000 15.16680000
5049 3 23.95990000 7.91672000 16.66710000
5050 3 23.88500000 8.35878000 14.90750000
5051 1 18.88120000 29.94320000 19.47110000
5052 2 19.33220000 28.85150000 19.50590000
5053 2 19.35790000 30.93520000 18.75520000
5054 2 17.82180000 30.34510000 20.06740000
5055 1 18.73380000 32.15920000 18.97150000
5056 1 17.44380000 31.57550000 19.52450000
5057 3 18.79620000 32.78680000 18.12440000
5058 3 19.23190000 32.63540000 19.88170000
5059 3 16.76270000 31.53570000 18.60880000
5060 3 17.14720000 32.23320000 20.27420000
5061 1 7.33230000 25.52650000 1.21994000
5062 2 7.79623000 24.37250000 1.23961000
5063 2 7.61164000 26.36380000 0.23324100
5064 2 6.56258000 26.07510000 2.13848000
5065 1 7.05687000 27.63200000 0.56956900
5066 1 6.53563000 27.40040000 1.99711000
5067 3 6.29738000 27.85260000 43.55600000
5068 3 7.82365000 28.44820000 0.69450700
5069 3 5.56394000 27.93690000 2.13206000
5070 3 7.16884000 27.72970000 2.80747000
5071 1 10.99280000 35.04290000 31.43390000
5072 2 11.99630000 34.87950000 30.75630000
5073 2 11.11410000 35.48370000 32.66310000
5074 2 9.73010000 34.93900000 31.08950000
5075 1 9.86538000 35.86390000 33.14220000
5076 1 8.90604000 35.17520000 32.16250000
5077 3 9.84764000 36.93590000 33.06640000
5078 3 9.67366000 35.69650000 34.22030000
5079 3 8.13418000 35.87270000 31.76670000
5080 3 8.44180000 34.24900000 32.55760000
5081 1 21.78500000 40.76650000 34.72070000
5082 2 22.14430000 41.77990000 34.18110000
5083 2 20.85220000 39.93780000 34.32030000
5084 2 22.47190000 40.12980000 35.60780000
5085 1 20.83970000 38.72490000 34.99860000
5086 1 21.73860000 39.06350000 36.19230000
5087 3 21.40690000 37.97770000 34.33730000
5088 3 19.77250000 38.32380000 35.14130000
5089 3 22.30890000 38.20020000 36.48510000
5090 3 21.25300000 39.58950000 37.07860000
5091 1 43.19930000 3.31428000 18.06490000
5092 2 43.78400000 3.86295000 18.98810000
5093 2 43.49560000 3.50414000 16.73720000
5094 2 42.21660000 2.52476000 18.12480000
5095 1 42.69460000 2.68758000 15.90320000
5096 1 41.61140000 2.31907000 16.82590000
5097 3 43.38560000 1.91638000 15.77460000
5098 3 42.37940000 3.03877000 14.92270000
5099 3 41.19840000 1.30643000 16.70680000
5100 3 40.78960000 3.01008000 16.83740000
5101 1 37.48590000 40.84170000 31.44680000
5102 2 38.10870000 41.62050000 32.14550000
5103 2 37.85860000 39.61060000 31.24380000
5104 2 36.37130000 41.13190000 30.80720000
5105 1 36.81860000 38.88630000 30.57180000
5106 1 36.01380000 39.97630000 29.99900000
5107 3 36.29870000 38.13170000 31.14680000
5108 3 37.20740000 38.33610000 29.78830000
5109 3 34.91820000 39.84230000 30.09450000
5110 3 36.30020000 39.99230000 28.94520000
5111 1 26.12450000 35.86140000 31.78260000
5112 2 25.69820000 35.50240000 30.67360000
5113 2 26.74790000 37.01450000 31.99940000
5114 2 26.02920000 35.12850000 32.92920000
5115 1 27.29780000 37.03220000 33.36310000
5116 1 26.58350000 35.84230000 34.02360000
5117 3 27.23840000 37.91790000 33.97100000
5118 3 28.38590000 36.77270000 33.17170000
5119 3 25.62570000 36.15020000 34.52990000
5120 3 27.28240000 35.40580000 34.70640000
5121 1 16.94210000 9.25513000 31.50330000
5122 2 17.27430000 10.19460000 30.76320000
5123 2 15.85430000 8.43340000 31.21690000
5124 2 17.45020000 8.88935000 32.65940000
5125 1 15.56970000 7.58161000 32.30120000
5126 1 16.86100000 7.73769000 33.13940000
5127 3 15.49260000 6.54686000 32.03790000
5128 3 14.76200000 8.06660000 32.84550000
5129 3 17.45160000 6.80571000 33.01520000
5130 3 16.66110000 7.84656000 34.18120000
5131 1 1.26622000 2.20723000 12.91810000
5132 2 0.45902900 1.95299000 11.96220000
5133 2 2.32380000 1.57186000 13.20060000
5134 2 1.17694000 3.23863000 13.77890000
5135 1 2.93977000 2.02909000 14.43040000
5136 1 2.32488000 3.38915000 14.59860000
5137 3 4.07398000 1.97623000 14.30740000
5138 3 2.67064000 1.46969000 15.30820000
5139 3 2.95239000 4.13577000 14.15630000
5140 3 2.05245000 3.65300000 15.65470000
5141 1 38.64730000 6.82817000 35.18880000
5142 2 37.57930000 6.72047000 34.71400000
5143 2 39.01040000 6.13610000 36.33260000
5144 2 39.71250000 7.43491000 34.71640000
5145 1 40.41440000 6.42560000 36.64670000
5146 1 40.96120000 6.96059000 35.29490000
5147 3 40.92130000 5.55826000 37.10960000
5148 3 40.43860000 7.13222000 37.48550000
5149 3 41.46970000 6.18988000 34.64800000
5150 3 41.62570000 7.82591000 35.40060000
5151 1 28.54880000 18.98590000 39.48430000
5152 2 29.53630000 18.82670000 40.16690000
5153 2 27.62830000 19.84240000 39.70930000
5154 2 28.39420000 18.43190000 38.25750000
5155 1 26.61480000 19.72680000 38.75650000
5156 1 27.23270000 18.99780000 37.63080000
5157 3 26.25670000 20.72090000 38.56460000
5158 3 25.79020000 19.10870000 39.12780000
5159 3 27.46490000 19.76940000 36.87030000
5160 3 26.56860000 18.22820000 37.19190000
5161 1 17.11680000 13.93560000 3.19870000
5162 2 18.22050000 13.88980000 2.75263000
5163 2 16.09330000 13.15450000 2.69115000
5164 2 16.72850000 14.47330000 4.34902000
5165 1 14.93810000 13.28070000 3.40635000
5166 1 15.37580000 14.12570000 4.57679000
5167 3 14.30910000 12.37930000 3.68150000
5168 3 14.20760000 13.83980000 2.81095000
5169 3 15.41460000 13.49700000 5.42970000
5170 3 14.78320000 15.01250000 4.85606000
5171 1 34.04460000 23.01120000 7.66378000
5172 2 33.26840000 23.14070000 8.59103000
5173 2 34.09480000 23.89680000 6.62554000
5174 2 35.01060000 22.05440000 7.49473000
5175 1 35.10630000 23.45000000 5.70287000
5176 1 35.85930000 22.34340000 6.41900000
5177 3 35.69160000 24.20470000 5.26719000
5178 3 34.53080000 22.90910000 4.92642000
5179 3 36.77960000 22.82290000 6.74883000
5180 3 35.91890000 21.49740000 5.78509000
5181 1 33.05230000 24.37750000 38.84760000
5182 2 33.34370000 23.24800000 38.57830000
5183 2 33.46310000 25.42500000 38.20710000
5184 2 32.27000000 24.78270000 39.89520000
5185 1 32.95920000 26.63500000 38.75850000
5186 1 31.92910000 26.13190000 39.79350000
5187 3 32.70070000 27.30740000 37.90830000
5188 3 33.65220000 27.26400000 39.30710000
5189 3 30.94630000 26.20730000 39.32250000
5190 3 31.90550000 26.63710000 40.81480000
5191 1 33.23840000 38.39000000 12.08220000
5192 2 32.20710000 39.02590000 12.09380000
5193 2 33.92780000 38.08330000 10.97640000
5194 2 34.03960000 38.13110000 13.15410000
5195 1 35.29640000 37.98360000 11.18770000
5196 1 35.23770000 37.58470000 12.67490000
5197 3 35.80190000 38.88290000 10.98270000
5198 3 35.74110000 37.17030000 10.67830000
5199 3 36.12520000 37.92300000 13.24840000
5200 3 35.19800000 36.49800000 12.78230000
5201 1 1.49769000 36.90640000 27.94970000
5202 2 1.20812000 35.82480000 28.34310000
5203 2 0.62649900 37.69590000 27.34870000
5204 2 2.75762000 37.40770000 27.83560000
5205 1 1.21227000 38.89070000 26.87430000
5206 1 2.64679000 38.72040000 27.47140000
5207 3 0.71798900 39.83550000 27.16670000
5208 3 1.12048000 38.72590000 25.81870000
5209 3 2.72716000 39.35100000 28.40910000
5210 3 3.34021000 38.97020000 26.72490000
5211 1 8.11505000 3.08976000 35.41700000
5212 2 8.12132000 3.53903000 34.29820000
5213 2 8.24684000 1.76932000 35.65880000
5214 2 7.77629000 3.75025000 36.48140000
5215 1 8.25736000 1.58857000 37.04170000
5216 1 7.49545000 2.85161000 37.53410000
5217 3 9.30931000 1.50049000 37.33900000
5218 3 7.76920000 0.60290400 37.12090000
5219 3 7.78938000 3.28791000 38.51830000
5220 3 6.43366000 2.66333000 37.69170000
5221 1 13.38000000 17.26580000 7.44836000
5222 2 13.37260000 18.33090000 6.80016000
5223 2 14.45310000 16.70210000 8.11092000
5224 2 12.26380000 16.48980000 7.54182000
5225 1 14.10070000 15.48540000 8.68506000
5226 1 12.56260000 15.44690000 8.54217000
5227 3 14.27300000 15.35550000 9.77594000
5228 3 14.50750000 14.57660000 8.20804000
5229 3 12.08580000 15.65760000 9.52021000
5230 3 12.26470000 14.46020000 8.13120000
5231 1 33.93580000 38.57570000 17.87850000
5232 2 33.68840000 38.06130000 16.82180000
5233 2 33.54750000 39.81330000 18.36060000
5234 2 34.78510000 37.96350000 18.71700000
5235 1 34.17240000 40.09940000 19.58310000
5236 1 34.90310000 38.77840000 19.88180000
5237 3 33.50310000 40.50980000 20.34030000
5238 3 34.89900000 40.88290000 19.45860000
5239 3 34.43160000 38.24410000 20.69980000
5240 3 35.97620000 38.97740000 20.09410000
5241 1 13.67230000 39.54450000 17.78520000
5242 2 13.56810000 39.19880000 18.97840000
5243 2 13.03950000 39.09300000 16.76960000
5244 2 14.38290000 40.68600000 17.43870000
5245 1 13.24360000 39.82350000 15.54800000
5246 1 14.32420000 40.87070000 16.03470000
5247 3 12.37140000 40.28390000 15.11110000
5248 3 13.84360000 39.23610000 14.87790000
5249 3 13.91340000 41.76930000 15.62660000
5250 3 15.35240000 40.68770000 15.58950000
5251 1 40.23100000 0.81906200 6.65201000
5252 2 40.09880000 1.43570000 7.70408000
5253 2 40.81690000 1.36924000 5.59521000
5254 2 39.81490000 43.29730000 6.29879000
5255 1 40.78030000 0.53342300 4.46015000
5256 1 40.42680000 42.87020000 5.05548000
5257 3 41.66630000 0.54484200 3.94316000
5258 3 40.03050000 0.99143800 3.77566000
5259 3 41.30170000 42.20920000 5.34830000
5260 3 39.64700000 42.27740000 4.55008000
5261 1 12.20050000 41.28810000 12.20170000
5262 2 12.90940000 40.48890000 12.78970000
5263 2 12.38730000 41.55890000 10.89790000
5264 2 11.12040000 41.78100000 12.63010000
5265 1 11.21980000 42.16030000 10.40610000
5266 1 10.67570000 42.75900000 11.69880000
5267 3 10.53690000 41.39340000 9.98510000
5268 3 11.39130000 42.86220000 9.55989000
5269 3 9.61365000 42.82770000 11.61130000
5270 3 11.00560000 43.76920000 11.84250000
5271 1 23.73390000 0.86892200 19.16500000
5272 2 24.36710000 1.16375000 20.20890000
5273 2 23.10440000 1.63600000 18.36280000
5274 2 23.68370000 43.34450000 18.60780000
5275 1 22.37480000 1.05045000 17.32800000
5276 1 22.97640000 43.30600000 17.37460000
5277 3 22.47920000 1.41266000 16.27890000
5278 3 21.31810000 1.21274000 17.47740000
5279 3 23.54610000 43.07670000 16.53900000
5280 3 22.21150000 42.53980000 17.38890000
5281 1 31.53840000 38.07850000 27.11550000
5282 2 30.83680000 38.94910000 27.54000000
5283 2 31.28410000 37.37770000 26.00290000
5284 2 32.76210000 37.69760000 27.54850000
5285 1 32.19610000 36.41550000 25.67150000
5286 1 33.26120000 36.64540000 26.70920000
5287 3 32.66070000 36.58390000 24.65880000
5288 3 31.69620000 35.43610000 25.85590000
5289 3 34.23550000 36.90920000 26.24520000
5290 3 33.43980000 35.71990000 27.29160000
5291 1 33.03150000 30.60590000 37.01480000
5292 2 33.52390000 29.54280000 37.44360000
5293 2 31.77900000 31.06710000 37.20990000
5294 2 33.80590000 31.41850000 36.25890000
5295 1 31.64250000 32.23870000 36.39050000
5296 1 33.06600000 32.51370000 35.87820000
5297 3 31.29350000 33.06800000 36.88760000
5298 3 31.02880000 32.00600000 35.56410000
5299 3 33.50930000 33.36420000 36.40030000
5300 3 33.07620000 32.43030000 34.77480000
5301 1 25.71490000 20.43390000 10.22170000
5302 2 25.61060000 21.61860000 10.61470000
5303 2 24.67470000 19.60400000 10.01660000
5304 2 26.84710000 19.90830000 9.82928000
5305 1 25.19490000 18.40180000 9.39931000
5306 1 26.61090000 18.80770000 8.99547000
5307 3 24.53760000 18.08000000 8.57169000
5308 3 25.29480000 17.55800000 10.12070000
5309 3 26.69960000 19.10180000 7.91043000
5310 3 27.39000000 18.03690000 9.12932000
5311 1 38.15770000 11.95220000 23.42310000
5312 2 37.08560000 11.51520000 23.72660000
5313 2 39.27150000 11.67410000 24.02420000
5314 2 38.34990000 12.91380000 22.49420000
5315 1 40.31750000 12.51280000 23.59190000
5316 1 39.70900000 13.35490000 22.47980000
5317 3 41.18520000 11.93830000 23.20880000
5318 3 40.64280000 13.22140000 24.35450000
5319 3 40.21860000 13.13280000 21.51830000
5320 3 39.76910000 14.40070000 22.76490000
5321 1 36.17080000 21.23350000 2.51205000
5322 2 36.98530000 21.45950000 3.37292000
5323 2 36.45780000 20.60480000 1.37070000
5324 2 34.89160000 21.55020000 2.55948000
5325 1 35.22730000 20.38850000 0.65811100
5326 1 34.29660000 21.33890000 1.31182000
5327 3 34.81940000 19.32470000 0.63970900
5328 3 35.31340000 20.51420000 43.26520000
5329 3 33.29570000 20.90820000 1.24602000
5330 3 34.23670000 22.33440000 0.90849900
5331 1 26.57100000 36.70010000 10.43850000
5332 2 25.89030000 37.58760000 9.95879000
5333 2 26.51210000 36.29340000 11.70820000
5334 2 27.34900000 35.85660000 9.75707000
5335 1 27.52900000 35.31060000 11.92760000
5336 1 27.97340000 34.90790000 10.54720000
5337 3 27.29380000 34.53130000 12.58230000
5338 3 28.28710000 35.91210000 12.31660000
5339 3 27.71320000 33.85010000 10.18940000
5340 3 29.07570000 34.86860000 10.51820000
5341 1 24.58630000 38.05820000 18.84370000
5342 2 24.63770000 36.84900000 18.95660000
5343 2 25.41430000 38.82010000 18.08010000
5344 2 23.83380000 38.81660000 19.59740000
5345 1 25.16460000 40.15560000 18.25890000
5346 1 24.20910000 40.19580000 19.52140000
5347 3 24.72390000 40.64500000 17.44140000
5348 3 26.08630000 40.67260000 18.39410000
5349 3 23.31010000 40.83150000 19.37570000
5350 3 24.72510000 40.53540000 20.47390000
5351 1 14.50020000 11.73000000 42.60540000
5352 2 13.34580000 11.79410000 42.10090000
5353 2 15.46100000 12.48950000 42.35040000
5354 2 14.85160000 10.92090000 43.61050000
5355 1 16.53710000 12.31210000 43.26030000
5356 1 16.21930000 11.04680000 0.32601200
5357 3 16.53430000 13.14570000 0.23552800
5358 3 17.48950000 12.26480000 42.70860000
5359 3 16.58140000 10.99740000 1.32230000
5360 3 16.65970000 10.17140000 43.55930000
5361 1 14.38270000 12.13740000 33.46890000
5362 2 14.84420000 12.07600000 34.58270000
5363 2 14.94510000 11.56980000 32.37070000
5364 2 13.26970000 12.73560000 33.09100000
5365 1 14.07770000 11.59980000 31.23720000
5366 1 12.87640000 12.31550000 31.81350000
5367 3 13.90920000 10.54900000 30.95190000
5368 3 14.54160000 12.18640000 30.41790000
5369 3 12.21530000 11.48610000 31.90320000
5370 3 12.39240000 13.03090000 31.14920000
5371 1 3.55912000 39.35370000 12.67000000
5372 2 4.17321000 40.31860000 12.26410000
5373 2 2.53202000 38.89050000 12.06420000
5374 2 3.77356000 38.57450000 13.71420000
5375 1 1.90158000 37.79980000 12.69600000
5376 1 2.79766000 37.60680000 13.86700000
5377 3 1.88755000 36.95230000 12.03510000
5378 3 0.89379100 38.09830000 12.99200000
5379 3 3.15509000 36.52850000 13.81690000
5380 3 2.20801000 37.73680000 14.81200000
5381 1 0.26897800 1.90237000 31.14980000
5382 2 0.17398500 2.23748000 29.97220000
5383 2 43.41500000 0.82530100 31.70050000
5384 2 0.90864800 2.46742000 32.11630000
5385 1 43.38200000 0.82976700 33.12180000
5386 1 0.79419900 1.81545000 33.33340000
5387 3 43.58200000 43.54100000 33.52010000
5388 3 42.41720000 1.19722000 33.50790000
5389 3 1.56023000 1.12531000 33.37820000
5390 3 0.69964600 2.52460000 34.13480000
5391 1 17.76380000 23.05070000 15.01970000
5392 2 16.71860000 22.47570000 15.52670000
5393 2 17.79060000 24.37640000 14.85390000
5394 2 18.95670000 22.48630000 14.62060000
5395 1 19.08480000 24.90210000 14.54310000
5396 1 19.72310000 23.51550000 13.99410000
5397 3 19.45490000 25.33130000 15.46710000
5398 3 19.06200000 25.66960000 13.81330000
5399 3 20.77400000 23.44900000 14.22270000
5400 3 19.59580000 23.59090000 12.90210000
5401 1 0.64846300 34.45960000 25.11970000
5402 2 1.36645000 33.54180000 25.50100000
5403 2 43.16820000 34.78660000 25.58590000
5404 2 0.94804100 35.25670000 24.07060000
5405 1 42.64930000 35.97240000 25.01720000
5406 1 43.49750000 36.11650000 23.79270000
5407 3 42.90010000 36.72700000 25.74160000
5408 3 41.61480000 36.01050000 24.75960000
5409 3 43.72890000 37.18680000 23.50050000
5410 3 42.90450000 35.63330000 23.05770000
5411 1 28.45010000 2.32881000 2.77256000
5412 2 29.06220000 1.98259000 3.78622000
5413 2 27.12420000 2.39315000 2.79972000
5414 2 28.92100000 2.65246000 1.50880000
5415 1 26.61690000 2.85662000 1.56294000
5416 1 27.85070000 2.98323000 0.65667200
5417 3 25.95760000 3.71530000 1.58360000
5418 3 25.98680000 2.08595000 1.16826000
5419 3 27.97830000 3.97562000 0.18263100
5420 3 27.74780000 2.22264000 43.56160000
5421 1 35.52280000 36.10810000 23.24680000
5422 2 34.69770000 36.77860000 22.61520000
5423 2 35.28800000 35.29740000 24.24990000
5424 2 36.83820000 36.06830000 23.03600000
5425 1 36.52160000 34.75170000 24.77930000
5426 1 37.48090000 34.91730000 23.66480000
5427 3 36.48800000 33.74740000 25.04870000
5428 3 36.90430000 35.29270000 25.55180000
5429 3 37.55340000 34.09220000 22.98110000
5430 3 38.45060000 35.12230000 24.13860000
5431 1 42.26130000 21.33680000 11.16130000
5432 2 41.98750000 20.57920000 12.02340000
5433 2 42.01640000 22.58020000 11.13480000
5434 2 42.99090000 21.05470000 10.13300000
5435 1 42.63020000 23.32390000 10.11510000
5436 1 43.08910000 22.12430000 9.25825000
5437 3 43.49660000 23.92220000 10.53690000
5438 3 41.93750000 24.04300000 9.64645000
5439 3 0.41823900 22.25510000 8.94597000
5440 3 42.45160000 21.98810000 8.36546000
5441 1 37.67090000 30.20340000 40.70960000
5442 2 38.57930000 30.17510000 41.54430000
5443 2 37.33990000 29.14550000 39.91130000
5444 2 36.75490000 31.17980000 40.45300000
5445 1 36.20190000 29.37050000 39.20770000
5446 1 35.78660000 30.80280000 39.50870000
5447 3 35.50720000 28.64040000 39.45330000
5448 3 36.49090000 29.32380000 38.15940000
5449 3 34.72480000 30.83210000 39.64540000
5450 3 35.95890000 31.53300000 38.70650000
5451 1 0.79091200 41.20880000 4.30434000
5452 2 1.81052000 41.85820000 4.47861000
5453 2 43.48030000 41.61880000 3.45171000
5454 2 0.55658200 39.98570000 4.66208000
5455 1 42.56000000 40.58340000 3.28827000
5456 1 42.89950000 39.65970000 4.51868000
5457 3 42.77920000 40.01950000 2.40668000
5458 3 41.49260000 40.93410000 3.27110000
5459 3 42.89750000 38.60740000 4.33281000
5460 3 42.28170000 39.91830000 5.42032000
5461 1 25.47140000 8.10129000 9.92293000
5462 2 24.80050000 8.53710000 9.00755000
5463 2 26.53020000 8.70291000 10.37920000
5464 2 25.28620000 6.93921000 10.54760000
5465 1 26.96050000 8.04192000 11.48080000
5466 1 26.38850000 6.59530000 11.41630000
5467 3 26.86380000 8.55548000 12.44120000
5468 3 28.04090000 8.14894000 11.53830000
5469 3 26.13780000 6.34162000 12.42230000
5470 3 27.01560000 5.82212000 11.06560000
5471 1 20.78390000 35.26020000 19.02240000
5472 2 21.80830000 34.79820000 19.41960000
5473 2 20.51540000 35.46760000 17.82510000
5474 2 19.82640000 35.66720000 19.87890000
5475 1 19.12630000 35.72970000 17.75990000
5476 1 18.86390000 36.29650000 19.10670000
5477 3 18.61460000 34.72210000 17.71090000
5478 3 18.71620000 36.34890000 16.93020000
5479 3 17.90190000 36.08420000 19.51360000
5480 3 18.85690000 37.34520000 19.00850000
5481 1 5.93278000 29.93040000 19.94230000
5482 2 5.92733000 30.72520000 20.89550000
5483 2 4.89162000 29.60480000 19.21430000
5484 2 6.99569000 29.32940000 19.54100000
5485 1 5.20699000 28.62420000 18.29890000
5486 1 6.65043000 28.36590000 18.59870000
5487 3 5.11491000 29.00030000 17.26910000
5488 3 4.54799000 27.71890000 18.37610000
5489 3 7.31811000 28.50660000 17.71210000
5490 3 6.78037000 27.39350000 19.00170000
5491 1 5.99724000 21.64970000 23.70410000
5492 2 5.43579000 22.11600000 24.71380000
5493 2 6.73240000 20.54570000 23.77440000
5494 2 5.87321000 22.05210000 22.43210000
5495 1 6.75577000 19.95470000 22.55260000
5496 1 6.45919000 21.05610000 21.56630000
5497 3 5.93489000 19.18590000 22.52080000
5498 3 7.75488000 19.56880000 22.21870000
5499 3 5.80599000 20.60370000 20.75580000
5500 3 7.36911000 21.35460000 20.99290000
5501 1 29.22530000 4.95722000 34.92410000
5502 2 29.21560000 3.84619000 35.25810000
5503 2 30.28030000 5.51020000 34.34850000
5504 2 28.19700000 5.89181000 35.05940000
5505 1 30.13140000 6.92918000 34.16910000
5506 1 28.55700000 7.08265000 34.29350000
5507 3 30.41120000 7.38462000 33.25300000
5508 3 30.68040000 7.46994000 34.91570000
5509 3 28.10000000 7.01780000 33.29210000
5510 3 28.19680000 8.15770000 34.60540000
5511 1 9.46889000 11.96060000 36.86660000
5512 2 9.22702000 12.98380000 37.53790000
5513 2 8.63856000 10.94320000 36.70640000
5514 2 10.56240000 11.68440000 36.19220000
5515 1 9.30453000 9.79444000 36.23300000
5516 1 10.52900000 10.38730000 35.62560000
5517 3 8.78137000 9.22809000 35.42990000
5518 3 9.55973000 9.18884000 37.04880000
5519 3 10.35300000 10.28630000 34.56490000
5520 3 11.40380000 9.79206000 35.86540000
5521 1 36.81490000 18.08180000 12.77740000
5522 2 36.25820000 17.37360000 11.90720000
5523 2 38.10840000 18.34290000 12.96190000
5524 2 36.08860000 18.89070000 13.58520000
5525 1 38.29200000 18.98590000 14.18260000
5526 1 36.95870000 19.70640000 14.39880000
5527 3 39.06980000 19.70740000 14.04920000
5528 3 38.68980000 18.42800000 15.13870000
5529 3 37.05120000 20.79770000 14.17510000
5530 3 36.61400000 19.56740000 15.37160000
5531 1 12.96710000 21.83570000 6.02917000
5532 2 12.04630000 21.75630000 5.17494000
5533 2 14.09800000 22.31070000 5.92048000
5534 2 12.81720000 21.45010000 7.24599000
5535 1 14.85670000 22.21300000 7.13272000
5536 1 14.00640000 21.37800000 8.00288000
5537 3 14.89200000 23.17010000 7.65038000
5538 3 15.88250000 21.99620000 7.02190000
5539 3 13.84510000 21.79770000 9.01232000
5540 3 14.29870000 20.31690000 8.11436000
5541 1 24.57250000 22.00980000 25.09260000
5542 2 24.60720000 20.90820000 25.61740000
5543 2 24.93470000 22.25100000 23.90160000
5544 2 24.15730000 23.12720000 25.70990000
5545 1 24.54780000 23.57160000 23.47790000
5546 1 24.28460000 24.26550000 24.82080000
5547 3 23.62990000 23.53790000 22.90430000
5548 3 25.32840000 23.94200000 22.87350000
5549 3 23.49040000 24.95570000 24.88460000
5550 3 25.11890000 24.93670000 24.96900000
5551 1 30.19770000 12.07010000 9.73799000
5552 2 30.03670000 12.26890000 8.49395000
5553 2 30.95460000 12.68150000 10.54570000
5554 2 29.60270000 11.18930000 10.41750000
5555 1 31.18020000 12.02100000 11.74800000
5556 1 29.75740000 11.35910000 11.76380000
5557 3 31.60300000 12.58200000 12.54410000
5558 3 31.95690000 11.24830000 11.67510000
5559 3 29.02170000 12.09370000 12.00080000
5560 3 29.67960000 10.40180000 12.34420000
5561 1 1.31451000 19.97750000 36.04310000
5562 2 0.58364600 19.34560000 35.30310000
5563 2 0.88546000 21.01810000 36.77530000
5564 2 2.55230000 19.74550000 36.32260000
5565 1 1.96905000 21.67770000 37.44580000
5566 1 3.07156000 20.65430000 37.22950000
5567 3 1.90411000 21.98140000 38.48150000
5568 3 2.31355000 22.54790000 36.83670000
5569 3 3.43657000 20.21160000 38.13370000
5570 3 3.93404000 21.04930000 36.69160000
5571 1 3.95470000 26.31570000 34.94580000
5572 2 3.55387000 26.78000000 33.91230000
5573 2 3.42340000 26.69440000 36.07640000
5574 2 5.04473000 25.53460000 35.21420000
5575 1 4.20902000 26.39100000 37.18650000
5576 1 5.26351000 25.37500000 36.64560000
5577 3 3.69738000 25.92290000 38.02150000
5578 3 4.67258000 27.24740000 37.52800000
5579 3 5.08122000 24.37070000 37.01620000
5580 3 6.28777000 25.52590000 37.02190000
5581 1 5.76025000 2.90777000 2.83476000
5582 2 4.85791000 3.71528000 2.93485000
5583 2 5.93505000 2.27594000 1.70629000
5584 2 6.60010000 2.60596000 3.73462000
5585 1 6.92456000 1.29387000 1.90581000
5586 1 7.51093000 1.70978000 3.26683000
5587 3 7.74092000 1.42309000 1.20206000
5588 3 6.69550000 0.20491600 1.92817000
5589 3 8.54242000 2.01250000 3.32067000
5590 3 7.48104000 0.87144600 3.92266000
5591 1 28.88080000 42.55530000 32.35240000
5592 2 29.13570000 41.73790000 31.56200000
5593 2 27.78200000 43.18050000 32.54330000
5594 2 29.79920000 43.04780000 33.13210000
5595 1 27.86210000 0.45465900 33.58890000
5596 1 29.32300000 0.50594800 33.90410000
5597 3 27.41270000 43.71400000 34.45630000
5598 3 27.37660000 1.43311000 33.46680000
5599 3 29.67310000 0.43028000 34.91650000
5600 3 29.74510000 1.38192000 33.32180000
5601 1 34.77130000 7.31157000 37.36890000
5602 2 35.42030000 7.24772000 38.42620000
5603 2 34.42090000 8.46961000 36.84630000
5604 2 34.48450000 6.31811000 36.54200000
5605 1 33.54960000 8.21437000 35.74640000
5606 1 33.87380000 6.75062000 35.37560000
5607 3 33.73570000 8.88492000 34.90470000
5608 3 32.50190000 8.38523000 36.04580000
5609 3 34.57820000 6.84100000 34.52400000
5610 3 32.82910000 6.20375000 35.17250000
5611 1 25.84110000 28.42980000 25.35130000
5612 2 26.13030000 27.30820000 25.73010000
5613 2 25.17530000 29.32770000 26.04160000
5614 2 26.31670000 29.00190000 24.20510000
5615 1 24.91310000 30.51470000 25.28100000
5616 1 25.99360000 30.37880000 24.18890000
5617 3 24.96920000 31.47760000 25.85640000
5618 3 23.92180000 30.48610000 24.91740000
5619 3 26.81930000 31.10040000 24.31310000
5620 3 25.56630000 30.72780000 23.27630000
5621 1 2.63873000 36.89990000 38.78120000
5622 2 3.23432000 37.94730000 38.95910000
5623 2 1.33412000 36.82270000 38.86440000
5624 2 3.24100000 35.86830000 38.36720000
5625 1 0.94048000 35.54230000 38.41040000
5626 1 2.31952000 34.87350000 38.24220000
5627 3 0.33163700 35.70910000 37.55830000
5628 3 0.33024100 35.12580000 39.22650000
5629 3 2.36107000 34.28780000 37.29340000
5630 3 2.32788000 34.12640000 38.99460000
5631 1 7.53440000 16.71100000 41.19380000
5632 2 7.27199000 17.49060000 42.12340000
5633 2 8.77844000 16.20880000 40.90720000
5634 2 6.68683000 16.32470000 40.26670000
5635 1 8.72358000 15.86780000 39.52560000
5636 1 7.24646000 15.47800000 39.39720000
5637 3 9.34232000 15.01580000 39.26440000
5638 3 8.97051000 16.73370000 38.87060000
5639 3 7.10764000 14.47690000 39.81240000
5640 3 6.89338000 15.31940000 38.45520000
5641 1 11.69630000 34.02480000 26.91710000
5642 2 12.88930000 33.73580000 27.07270000
5643 2 10.83460000 33.23550000 26.40360000
5644 2 11.05930000 35.25970000 27.16720000
5645 1 9.51192000 33.82310000 26.40760000
5646 1 9.61674000 35.14340000 27.28750000
5647 3 8.89564000 33.10000000 26.89170000
5648 3 9.16914000 34.02270000 25.40950000
5649 3 9.35440000 35.09190000 28.34590000
5650 3 9.04952000 35.98750000 26.78400000
5651 1 37.35400000 27.27280000 33.16850000
5652 2 36.81570000 27.14970000 32.09550000
5653 2 37.11440000 28.26530000 34.06360000
5654 2 38.31530000 26.59480000 33.60980000
5655 1 37.94340000 28.17310000 35.18950000
5656 1 38.55750000 26.78550000 34.97240000
5657 3 37.40580000 28.21330000 36.12760000
5658 3 38.67330000 28.99350000 35.05580000
5659 3 38.34100000 26.01330000 35.68500000
5660 3 39.65450000 26.89190000 34.92490000
5661 1 33.62520000 0.34701200 27.70640000
5662 2 33.43950000 1.24050000 28.49580000
5663 2 33.58210000 0.28058200 26.43430000
5664 2 33.70480000 42.83280000 28.17260000
5665 1 33.80480000 42.69980000 25.98000000
5666 1 33.42500000 41.89030000 27.14660000
5667 3 34.86670000 42.54500000 25.80260000
5668 3 33.11730000 42.45210000 25.09820000
5669 3 34.08130000 41.06310000 27.31690000
5670 3 32.47280000 41.48320000 27.09140000
5671 1 19.73450000 12.62590000 6.19355000
5672 2 20.55330000 13.03540000 5.40843000
5673 2 18.64570000 11.98690000 5.92067000
5674 2 19.97050000 12.62860000 7.44521000
5675 1 17.90040000 11.67250000 7.07239000
5676 1 18.87780000 11.98440000 8.17316000
5677 3 17.56800000 10.64580000 7.10016000
5678 3 17.11200000 12.35670000 7.17568000
5679 3 19.28720000 11.07350000 8.59843000
5680 3 18.58300000 12.53780000 9.07185000
5681 1 29.05180000 43.83500000 26.94610000
5682 2 28.95340000 1.02681000 26.09910000
5683 2 28.07180000 43.19200000 27.55990000
5684 2 30.24530000 43.29060000 27.32880000
5685 1 28.50840000 42.29790000 28.52110000
5686 1 30.05520000 42.20550000 28.25000000
5687 3 28.01070000 41.41020000 28.32450000
5688 3 28.22030000 42.50720000 29.59400000
5689 3 30.35170000 41.23870000 27.83020000
5690 3 30.64860000 42.38340000 29.15630000
5691 1 1.83456000 23.56460000 22.92220000
5692 2 1.37257000 24.05440000 23.91620000
5693 2 2.47818000 22.45340000 22.86630000
5694 2 1.79302000 24.01190000 21.77960000
5695 1 2.34670000 21.90850000 21.61110000
5696 1 2.36035000 23.15620000 20.82160000
5697 3 1.41798000 21.34190000 21.61690000
5698 3 3.18104000 21.23550000 21.41210000
5699 3 1.71665000 23.07630000 19.93920000
5700 3 3.38336000 23.38040000 20.57520000
5701 1 10.14820000 36.93510000 24.29470000
5702 2 8.95766000 37.02750000 24.65370000
5703 2 10.75640000 35.81150000 23.90850000
5704 2 11.02380000 37.86260000 24.45360000
5705 1 12.16140000 36.02060000 23.69080000
5706 1 12.33710000 37.31150000 24.34750000
5707 3 12.12700000 36.06180000 22.62100000
5708 3 12.77340000 35.19000000 23.99760000
5709 3 12.98430000 38.02150000 23.89350000
5710 3 12.77640000 37.03400000 25.32090000
5711 1 18.15290000 24.87260000 39.71650000
5712 2 19.32240000 25.42710000 39.68150000
5713 2 17.91120000 23.54670000 39.80450000
5714 2 17.04320000 25.51400000 39.65550000
5715 1 16.48690000 23.28610000 39.59910000
5716 1 15.97270000 24.64050000 39.93060000
5717 3 16.14150000 22.44080000 40.27870000
5718 3 16.26660000 22.89840000 38.58030000
5719 3 15.77050000 24.49740000 40.92430000
5720 3 15.00580000 24.83320000 39.29450000
5721 1 35.79630000 3.49074000 18.08520000
5722 2 34.95970000 3.53181000 18.94100000
5723 2 37.07460000 3.24578000 18.37240000
5724 2 35.61470000 3.68012000 16.77190000
5725 1 37.80920000 3.06505000 17.16610000
5726 1 36.85250000 3.65519000 16.16790000
5727 3 37.93300000 1.98475000 17.05360000
5728 3 38.75090000 3.54772000 17.08350000
5729 3 36.75410000 2.90333000 15.38340000
5730 3 37.15090000 4.61810000 15.79480000
5731 1 24.14890000 14.66950000 28.09530000
5732 2 24.69980000 13.84400000 27.36020000
5733 2 24.01380000 14.52130000 29.45330000
5734 2 23.88560000 15.91500000 27.81520000
5735 1 23.71310000 15.69660000 30.05670000
5736 1 23.30610000 16.54140000 28.84120000
5737 3 24.58950000 16.06350000 30.52400000
5738 3 23.07490000 15.56510000 30.90590000
5739 3 23.55780000 17.57260000 28.79620000
5740 3 22.21620000 16.40990000 28.67760000
5741 1 14.85460000 3.46098000 42.50110000
5742 2 14.26640000 4.46138000 42.22270000
5743 2 14.74040000 2.81400000 43.60830000
5744 2 15.74800000 2.93054000 41.81400000
5745 1 15.74990000 1.87049000 43.83440000
5746 1 16.35680000 1.77234000 42.45010000
5747 3 15.25540000 0.91863100 0.37807200
5748 3 16.57290000 2.08768000 0.90201000
5749 3 15.94990000 0.82471900 41.91830000
5750 3 17.47300000 1.78069000 42.35660000
5751 1 9.20794000 15.47410000 35.84420000
5752 2 8.13185000 15.96910000 36.15580000
5753 2 10.34550000 15.65170000 36.48970000
5754 2 9.42648000 14.81980000 34.75630000
5755 1 11.39370000 14.97060000 35.84630000
5756 1 10.78980000 14.70970000 34.52260000
5757 3 11.63490000 14.03170000 36.39670000
5758 3 12.23950000 15.57270000 35.68260000
5759 3 11.17420000 13.70980000 34.11750000
5760 3 11.08760000 15.56260000 33.95230000
5761 1 40.55770000 26.42740000 24.36350000
5762 2 40.15750000 27.18260000 25.30930000
5763 2 39.96180000 26.44150000 23.19170000
5764 2 41.55620000 25.50740000 24.38000000
5765 1 40.75160000 25.68800000 22.29070000
5766 1 41.66490000 24.78280000 23.20090000
5767 3 41.37280000 26.34640000 21.59570000
5768 3 40.13550000 25.06480000 21.61140000
5769 3 42.71650000 24.59690000 22.89180000
5770 3 41.07750000 23.86540000 23.39350000
5771 1 38.54750000 22.76890000 22.22770000
5772 2 39.46790000 22.20020000 21.66010000
5773 2 37.49730000 23.38550000 21.70740000
5774 2 38.67230000 23.11540000 23.51200000
5775 1 36.74400000 24.09780000 22.71560000
5776 1 37.57760000 23.93040000 24.02070000
5777 3 35.71800000 23.56110000 22.67730000
5778 3 36.44690000 25.08960000 22.48900000
5779 3 36.99420000 23.46970000 24.82330000
5780 3 37.86620000 24.89560000 24.46790000
5781 1 42.97070000 42.40450000 8.31684000
5782 2 42.77780000 43.55380000 8.14740000
5783 2 43.29630000 41.78830000 9.46539000
5784 2 43.01840000 41.52730000 7.33214000
5785 1 43.42470000 40.40580000 9.24411000
5786 1 43.69160000 40.35570000 7.71244000
5787 3 42.46360000 40.00040000 9.50365000
5788 3 0.39592300 39.91080000 9.89370000
5789 3 43.22090000 39.49220000 7.26430000
5790 3 1.04981000 40.31220000 7.40734000
5791 1 26.02940000 31.73720000 40.03520000
5792 2 27.24020000 31.73810000 39.77740000
5793 2 25.34800000 31.74860000 41.21550000
5794 2 25.08870000 31.67160000 39.16750000
5795 1 24.04570000 31.52240000 41.06170000
5796 1 23.83870000 31.96960000 39.64890000
5797 3 23.30150000 31.93700000 41.76260000
5798 3 23.80100000 30.40790000 41.20480000
5799 3 23.47130000 33.04610000 39.51880000
5800 3 23.02840000 31.51420000 39.02840000
5801 1 37.71580000 15.64770000 38.66910000
5802 2 38.58450000 15.30690000 39.41170000
5803 2 36.43090000 15.42630000 38.80180000
5804 2 37.85200000 16.25610000 37.53500000
5805 1 35.72500000 15.93870000 37.64830000
5806 1 36.66830000 16.79500000 36.99650000
5807 3 34.70080000 16.35410000 37.85740000
5808 3 35.71060000 15.02190000 37.08990000
5809 3 36.69940000 17.75880000 37.45260000
5810 3 36.49170000 16.91300000 35.94410000
5811 1 36.54620000 8.87695000 19.00240000
5812 2 36.38530000 7.74979000 18.50870000
5813 2 37.34090000 9.81880000 18.59550000
5814 2 36.07150000 9.30571000 20.16500000
5815 1 37.50870000 10.83080000 19.50900000
5816 1 36.19780000 10.70530000 20.26900000
5817 3 37.47290000 11.82360000 19.03750000
5818 3 38.49940000 10.75030000 20.09440000
5819 3 35.42920000 11.12230000 19.60000000
5820 3 36.22010000 11.20630000 21.19850000
5821 1 41.52350000 31.12500000 15.25810000
5822 2 41.77770000 32.07650000 14.52470000
5823 2 42.40890000 30.12040000 15.50820000
5824 2 40.37910000 30.90770000 15.93860000
5825 1 41.90010000 29.38120000 16.53580000
5826 1 40.35210000 29.58710000 16.40620000
5827 3 42.12050000 29.89280000 17.51570000
5828 3 42.26230000 28.38530000 16.58770000
5829 3 39.74860000 29.34340000 17.27200000
5830 3 40.04510000 29.00930000 15.61410000
5831 1 25.99760000 42.15580000 4.76962000
5832 2 25.29030000 42.70130000 5.61959000
5833 2 26.98790000 42.73460000 4.18884000
5834 2 25.83310000 40.96020000 4.34241000
5835 1 27.69580000 41.81240000 3.35353000
5836 1 26.78180000 40.64040000 3.39837000
5837 3 28.72660000 41.50030000 3.67752000
5838 3 27.67120000 42.21900000 2.32323000
5839 3 27.17810000 39.67230000 3.67749000
5840 3 26.34930000 40.46980000 2.48232000
5841 1 26.61620000 38.93080000 41.53060000
5842 2 26.04800000 38.01790000 42.14520000
5843 2 27.89520000 39.29850000 41.60560000
5844 2 26.03580000 39.70570000 40.57890000
5845 1 28.32670000 40.02910000 40.42710000
5846 1 26.96950000 40.64160000 40.10850000
5847 3 28.75530000 39.31830000 39.71670000
5848 3 29.05950000 40.87610000 40.55760000
5849 3 26.97860000 40.82210000 39.00830000
5850 3 27.11190000 41.60910000 40.58830000
5851 1 25.19790000 4.57759000 7.14920000
5852 2 24.60020000 5.54022000 7.64673000
5853 2 26.01130000 4.66329000 6.13111000
5854 2 24.95220000 3.31084000 7.37667000
5855 1 26.39170000 3.44158000 5.65832000
5856 1 25.91770000 2.52331000 6.83668000
5857 3 27.49200000 3.35305000 5.45179000
5858 3 25.83490000 3.24731000 4.73187000
5859 3 26.61930000 2.44526000 7.64761000
5860 3 25.49940000 1.59441000 6.46966000
5861 1 38.12330000 42.40720000 21.53230000
5862 2 38.72080000 41.68280000 22.35040000
5863 2 37.30810000 41.89330000 20.59260000
5864 2 38.09210000 43.74820000 21.44510000
5865 1 36.72330000 42.95150000 19.78430000
5866 1 37.49070000 0.53020700 20.30680000
5867 3 35.62710000 43.06140000 19.93440000
5868 3 37.02950000 42.66330000 18.81390000
5869 3 36.63330000 1.26754000 20.43680000
5870 3 38.15130000 0.81591100 19.48630000
5871 1 9.80954000 25.58760000 19.52340000
5872 2 9.58412000 26.05920000 20.63880000
5873 2 10.10920000 24.30460000 19.25490000
5874 2 9.91615000 26.29910000 18.34550000
5875 1 10.11430000 24.09000000 17.90730000
5876 1 10.10870000 25.42550000 17.20780000
5877 3 9.16596000 23.63860000 17.71740000
5878 3 11.00560000 23.54120000 17.60290000
5879 3 9.31322000 25.38250000 16.40140000
5880 3 11.02980000 25.53930000 16.70060000
5881 1 33.81200000 2.90624000 35.14270000
5882 2 32.98290000 2.08929000 35.41470000
5883 2 34.97480000 3.02564000 35.72970000
5884 2 33.83710000 3.76273000 34.09430000
5885 1 35.85650000 3.93614000 35.06100000
5886 1 35.20470000 4.10821000 33.73470000
5887 3 36.84090000 3.43820000 34.97380000
5888 3 36.01680000 4.87396000 35.55810000
5889 3 35.54930000 3.34865000 33.04930000
5890 3 35.36840000 5.12168000 33.34690000
5891 1 38.62130000 15.46890000 15.29450000
5892 2 39.57100000 15.30210000 14.48730000
5893 2 37.32870000 15.28550000 14.96600000
5894 2 38.73800000 15.72810000 16.57210000
5895 1 36.52170000 15.72990000 16.00190000
5896 1 37.48890000 15.61410000 17.18850000
5897 3 35.61570000 15.19060000 16.14910000
5898 3 36.18730000 16.81990000 15.79500000
5899 3 37.32510000 14.70740000 17.64270000
5900 3 37.35390000 16.38390000 17.94070000
5901 1 38.56950000 18.89880000 18.46900000
5902 2 39.66480000 18.64900000 17.95090000
5903 2 37.49270000 19.12210000 17.81510000
5904 2 38.23170000 18.96070000 19.78020000
5905 1 36.36390000 19.36440000 18.60580000
5906 1 36.96600000 19.56120000 19.96100000
5907 3 35.61220000 18.63950000 18.70820000
5908 3 35.85370000 20.24430000 18.28470000
5909 3 36.38390000 19.06810000 20.72230000
5910 3 36.98950000 20.61350000 20.09070000
5911 1 6.01525000 19.98260000 31.67370000
5912 2 6.16387000 18.85720000 31.22040000
5913 2 5.27825000 20.91730000 31.04850000
5914 2 6.48126000 20.41330000 32.81940000
5915 1 5.30481000 22.11130000 31.82120000
5916 1 6.24051000 21.78970000 33.00660000
5917 3 4.32365000 22.26590000 32.21730000
5918 3 5.78038000 22.98930000 31.36030000
5919 3 5.84396000 21.92800000 33.99080000
5920 3 7.20147000 22.38720000 32.95290000
5921 1 31.58140000 10.70480000 33.05840000
5922 2 32.77170000 10.69210000 32.99780000
5923 2 30.85460000 11.69000000 32.57330000
5924 2 30.75420000 9.90821000 33.66550000
5925 1 29.51370000 11.65020000 32.99940000
5926 1 29.41350000 10.28640000 33.64450000
5927 3 28.90140000 11.60420000 32.09380000
5928 3 29.27350000 12.45810000 33.66520000
5929 3 28.83090000 9.57725000 33.05110000
5930 3 29.05120000 10.22040000 34.68900000
5931 1 19.38940000 25.69960000 10.15830000
5932 2 19.75740000 25.89670000 11.31560000
5933 2 19.37200000 24.57460000 9.64217000
5934 2 18.84620000 26.66670000 9.32857000
5935 1 18.97710000 24.55810000 8.23708000
5936 1 18.42460000 25.99010000 8.12454000
5937 3 18.18630000 23.92910000 8.01452000
5938 3 19.81200000 24.54940000 7.50810000
5939 3 17.36980000 25.76740000 8.16702000
5940 3 18.72920000 26.48400000 7.21998000
5941 1 41.67940000 37.36350000 37.96110000
5942 2 42.73780000 38.00720000 37.76290000
5943 2 41.54010000 36.03400000 37.87960000
5944 2 40.61740000 37.90080000 38.48640000
5945 1 40.34350000 35.59470000 38.47110000
5946 1 39.62890000 36.94050000 38.62340000
5947 3 40.54040000 35.11960000 39.42620000
5948 3 39.67860000 35.05140000 37.72540000
5949 3 39.16660000 37.02350000 39.64210000
5950 3 38.96460000 37.00180000 37.85760000
5951 1 10.95150000 32.62300000 22.45580000
5952 2 12.11330000 32.48650000 22.77460000
5953 2 9.90038000 31.91830000 22.99120000
5954 2 10.46130000 33.56470000 21.69750000
5955 1 8.65938000 32.30420000 22.41740000
5956 1 9.05672000 33.63060000 21.88080000
5957 3 7.92340000 32.44790000 23.24790000
5958 3 8.42540000 31.54140000 21.70130000
5959 3 8.96064000 34.45720000 22.63940000
5960 3 8.49214000 34.00460000 20.95460000
5961 1 42.70850000 34.57260000 1.95466000
5962 2 42.52680000 34.43280000 0.79232800
5963 2 41.75660000 34.65800000 2.90523000
5964 2 0.18033100 34.75800000 2.50726000
5965 1 42.24560000 35.13940000 4.09292000
5966 1 43.77200000 34.84730000 3.90652000
5967 3 42.01030000 34.52050000 4.98609000
5968 3 41.90400000 36.22770000 4.07927000
5969 3 0.33522300 33.83710000 4.36252000
5970 3 0.74014100 35.59750000 4.33719000
5971 1 32.62200000 35.27020000 0.40298400
5972 2 31.69080000 34.49430000 0.42300200
5973 2 32.66040000 36.33700000 1.16616000
5974 2 33.80400000 35.14050000 43.52760000
5975 1 33.82810000 37.16600000 1.06827000
5976 1 34.70360000 36.13370000 0.28310600
5977 3 34.24990000 37.38440000 2.00683000
5978 3 33.59230000 38.11490000 0.59708000
5979 3 35.37060000 35.66940000 1.06666000
5980 3 35.21400000 36.62150000 43.15050000
5981 1 35.08100000 13.07670000 11.25090000
5982 2 34.83470000 13.34190000 10.05120000
5983 2 34.26970000 12.30700000 12.02250000
5984 2 36.24790000 13.27120000 11.80010000
5985 1 34.95180000 11.95760000 13.17840000
5986 1 36.21500000 12.85060000 13.09750000
5987 3 35.06110000 10.89340000 13.08430000
5988 3 34.40290000 12.05930000 14.11920000
5989 3 37.14250000 12.42990000 13.42220000
5990 3 35.91940000 13.72410000 13.71630000
5991 1 24.24970000 26.33800000 38.10810000
5992 2 23.79710000 25.28440000 37.83820000
5993 2 23.45210000 27.41920000 38.18820000
5994 2 25.49850000 26.71530000 38.19550000
5995 1 24.23260000 28.62210000 38.27600000
5996 1 25.67110000 28.11410000 38.38530000
5997 3 23.88180000 29.27230000 39.14030000
5998 3 24.05610000 29.18120000 37.36180000
5999 3 26.20850000 28.25880000 39.28010000
6000 3 26.25740000 28.52680000 37.57910000
6001 1 14.29470000 22.20710000 26.95030000
6002 2 14.00030000 20.98490000 27.12980000
6003 2 14.05460000 22.95690000 25.86240000
6004 2 15.03720000 22.91330000 27.81730000
6005 1 14.67840000 24.15710000 25.94440000
6006 1 14.89340000 24.23250000 27.46300000
6007 3 14.13680000 24.96500000 25.43620000
6008 3 15.60960000 23.95390000 25.29560000
6009 3 13.95390000 24.62310000 27.81710000
6010 3 15.68060000 24.87780000 27.76520000
6011 1 43.57230000 2.89430000 4.05584000
6012 2 42.47010000 3.38587000 3.71800000
6013 2 1.05419000 3.11353000 3.50839000
6014 2 43.72910000 2.08051000 5.17684000
6015 1 2.02137000 2.43168000 4.21668000
6016 1 1.33035000 1.47336000 5.03938000
6017 3 2.46298000 3.11945000 4.93312000
6018 3 2.87699000 2.12629000 3.57458000
6019 3 1.69918000 1.19390000 6.04243000
6020 3 1.20558000 0.59746400 4.44121000
6021 1 21.61210000 33.91240000 14.31240000
6022 2 22.46440000 34.75580000 14.58880000
6023 2 21.42640000 33.19610000 13.12700000
6024 2 20.56690000 33.58970000 15.05780000
6025 1 20.19600000 32.50040000 13.10860000
6026 1 19.72800000 32.58530000 14.55710000
6027 3 20.38310000 31.45710000 12.74930000
6028 3 19.41730000 33.01620000 12.38930000
6029 3 19.79930000 31.63360000 15.11360000
6030 3 18.71030000 32.96800000 14.51880000
6031 1 17.90290000 36.26420000 14.15990000
6032 2 17.59800000 35.29130000 14.82210000
6033 2 18.97730000 36.45680000 13.30220000
6034 2 17.28640000 37.50640000 14.28680000
6035 1 18.79260000 37.66810000 12.58540000
6036 1 17.96250000 38.52290000 13.59300000
6037 3 18.19480000 37.31700000 11.68710000
6038 3 19.64210000 38.18110000 12.16900000
6039 3 17.30350000 39.30660000 13.25050000
6040 3 18.74040000 39.02520000 14.26440000
6041 1 14.63200000 18.59610000 11.65110000
6042 2 14.28110000 19.44510000 10.87000000
6043 2 15.85580000 18.53210000 12.16590000
6044 2 13.85260000 17.55540000 12.10120000
6045 1 15.81180000 17.62020000 13.29560000
6046 1 14.62180000 16.75570000 12.95840000
6047 3 15.66590000 18.10970000 14.28140000
6048 3 16.73990000 17.09050000 13.27610000
6049 3 14.16530000 16.37830000 13.79380000
6050 3 14.91090000 15.89980000 12.26790000
6051 1 16.44880000 33.94060000 29.89550000
6052 2 17.09200000 33.07100000 30.51470000
6053 2 16.42630000 34.08170000 28.50010000
6054 2 15.64980000 34.83480000 30.45470000
6055 1 15.82080000 35.32270000 28.18850000
6056 1 14.95210000 35.55370000 29.43680000
6057 3 15.10700000 35.26860000 27.38500000
6058 3 16.48280000 36.15910000 28.05670000
6059 3 13.98040000 35.12100000 29.16200000
6060 3 14.78700000 36.59190000 29.74650000
6061 1 29.81150000 42.01360000 22.62860000
6062 2 29.49020000 43.12730000 22.22580000
6063 2 30.32270000 41.71050000 23.79480000
6064 2 29.72600000 40.90050000 21.89710000
6065 1 30.47470000 40.27980000 23.97410000
6066 1 30.25620000 39.72220000 22.56320000
6067 3 29.62250000 39.87920000 24.55640000
6068 3 31.45530000 39.86700000 24.41020000
6069 3 29.46420000 38.96980000 22.60420000
6070 3 31.12210000 39.12900000 22.23530000
6071 1 3.96914000 16.31900000 26.59090000
6072 2 3.52614000 15.72600000 25.64380000
6073 2 4.63850000 17.48680000 26.50940000
6074 2 3.97909000 15.86950000 27.77540000
6075 1 4.91932000 17.93950000 27.75560000
6076 1 4.70184000 16.71120000 28.71550000
6077 3 4.18851000 18.67460000 28.09160000
6078 3 5.98093000 18.23350000 27.91500000
6079 3 4.06887000 16.96240000 29.59710000
6080 3 5.67283000 16.29030000 28.98620000
6081 1 3.39828000 18.37080000 22.75050000
6082 2 3.39748000 19.19370000 23.63980000
6083 2 3.37458000 17.10720000 22.87740000
6084 2 3.27031000 18.63010000 21.44800000
6085 1 3.20690000 16.36520000 21.69080000
6086 1 3.35675000 17.48970000 20.61240000
6087 3 2.22302000 15.86690000 21.77060000
6088 3 3.96050000 15.64750000 21.61320000
6089 3 2.66421000 17.42820000 19.81070000
6090 3 4.36908000 17.39910000 20.26050000
6091 1 34.81150000 40.82600000 42.69940000
6092 2 34.52240000 39.67910000 42.62200000
6093 2 35.11690000 41.47590000 43.77650000
6094 2 34.78060000 41.62200000 41.70300000
6095 1 35.31290000 42.84750000 43.56290000
6096 1 34.93890000 43.01090000 42.08180000
6097 3 36.39010000 43.15470000 43.78760000
6098 3 34.70290000 43.39710000 0.50270100
6099 3 35.77020000 43.59350000 41.65030000
6100 3 34.05280000 43.53990000 41.90470000
6101 1 42.96950000 36.17900000 31.79240000
6102 2 41.92640000 36.63410000 31.21890000
6103 2 43.00000000 35.28730000 32.79170000
6104 2 0.50750700 36.71900000 31.67520000
6105 1 0.49357100 35.39700000 33.47150000
6106 1 1.48053000 36.05430000 32.48580000
6107 3 0.89893300 34.35340000 33.61280000
6108 3 0.50998200 36.05080000 34.28650000
6109 3 1.90106000 35.39060000 31.78100000
6110 3 2.17523000 36.71640000 32.99570000
6111 1 40.11040000 14.82440000 26.77230000
6112 2 39.18130000 15.21340000 25.97780000
6113 2 40.72740000 15.76210000 27.56290000
6114 2 40.49560000 13.62340000 26.99080000
6115 1 41.65780000 15.03800000 28.35870000
6116 1 41.44100000 13.52780000 28.05730000
6117 3 41.58700000 15.13690000 29.48750000
6118 3 42.55630000 15.45200000 27.95990000
6119 3 41.09490000 12.94910000 28.92190000
6120 3 42.36690000 12.97800000 27.65200000
6121 1 40.15900000 23.50020000 6.42398000
6122 2 40.32160000 23.42000000 7.64295000
6123 2 39.84890000 22.43860000 5.70468000
6124 2 40.37460000 24.56670000 5.70026000
6125 1 40.00960000 22.76100000 4.36336000
6126 1 39.91190000 24.30820000 4.43682000
6127 3 39.33920000 22.18760000 3.72271000
6128 3 41.01900000 22.51530000 4.00905000
6129 3 38.84780000 24.52260000 4.35773000
6130 3 40.52600000 24.85060000 3.68700000
6131 1 18.80820000 15.72400000 8.71923000
6132 2 18.25900000 14.99970000 7.86477000
6133 2 18.27490000 15.87620000 9.84616000
6134 2 19.96190000 16.33400000 8.68302000
6135 1 19.05390000 16.65640000 10.78390000
6136 1 20.39360000 16.65720000 9.98809000
6137 3 19.16800000 16.28420000 11.79720000
6138 3 18.61910000 17.66170000 10.80930000
6139 3 21.00030000 15.83640000 10.30930000
6140 3 20.97750000 17.51620000 10.02260000
6141 1 19.10370000 26.78010000 29.53080000
6142 2 18.70910000 27.14220000 28.44710000
6143 2 19.90370000 25.73050000 29.81050000
6144 2 18.58090000 27.19130000 30.65330000
6145 1 19.99880000 25.56940000 31.21540000
6146 1 18.80890000 26.29310000 31.68250000
6147 3 20.88880000 26.02460000 31.78800000
6148 3 19.94030000 24.43730000 31.40570000
6149 3 18.85530000 26.82820000 32.65130000
6150 3 17.93240000 25.65070000 31.90050000
6151 1 29.18820000 32.26210000 42.95710000
6152 2 28.94200000 31.44230000 0.17046600
6153 2 29.74940000 32.01020000 41.71150000
6154 2 28.79510000 33.47670000 42.97030000
6155 1 29.93770000 33.20830000 40.99050000
6156 1 28.94350000 34.08460000 41.65200000
6157 3 29.67480000 33.01090000 39.92100000
6158 3 30.90260000 33.65670000 41.04770000
6159 3 28.06490000 34.04420000 41.07440000
6160 3 29.21030000 35.11890000 41.78060000
6161 1 27.34530000 31.09750000 27.62230000
6162 2 28.06590000 30.64160000 26.78510000
6163 2 26.84130000 32.31240000 27.62140000
6164 2 26.79690000 30.43500000 28.65560000
6165 1 25.97540000 32.59970000 28.71930000
6166 1 26.12000000 31.33470000 29.50440000
6167 3 24.95080000 32.59890000 28.42030000
6168 3 26.33340000 33.40420000 29.31070000
6169 3 25.14780000 30.79020000 29.63910000
6170 3 26.70440000 31.55240000 30.39020000
6171 1 8.41291000 10.80000000 12.91600000
6172 2 9.56701000 10.42140000 12.79080000
6173 2 8.14376000 11.95390000 13.39490000
6174 2 7.32964000 10.18410000 12.52370000
6175 1 6.73411000 12.16430000 13.65990000
6176 1 6.20559000 11.03790000 12.77640000
6177 3 6.36525000 13.10820000 13.30810000
6178 3 6.50342000 11.99170000 14.63180000
6179 3 5.83306000 11.40680000 11.81620000
6180 3 5.50632000 10.46790000 13.37940000
6181 1 24.73250000 32.23790000 9.69511000
6182 2 25.03230000 31.91060000 8.57369000
6183 2 23.92980000 31.58200000 10.55300000
6184 2 25.32520000 33.27480000 10.41270000
6185 1 24.10730000 31.99600000 11.88670000
6186 1 24.75780000 33.33920000 11.65610000
6187 3 24.67180000 31.23050000 12.49620000
6188 3 23.06810000 32.32720000 12.19110000
6189 3 25.48440000 33.83880000 12.34020000
6190 3 23.90750000 33.99400000 11.67460000
6191 1 21.81190000 21.59550000 0.24396300
6192 2 20.92300000 20.97540000 0.71573900
6193 2 21.75170000 22.92660000 43.67890000
6194 2 22.86930000 21.10910000 43.34250000
6195 1 22.94080000 23.38770000 43.02370000
6196 1 23.76790000 22.12920000 42.95130000
6197 3 23.23650000 24.28460000 43.58100000
6198 3 22.67860000 23.58670000 41.98780000
6199 3 24.58890000 22.00600000 43.58810000
6200 3 24.09750000 21.88800000 41.90310000
6201 1 11.71720000 13.39760000 11.79830000
6202 2 12.19640000 12.78860000 10.86430000
6203 2 10.47020000 13.91380000 11.95180000
6204 2 12.53530000 13.79220000 12.78500000
6205 1 10.31040000 14.43800000 13.24090000
6206 1 11.74600000 14.65950000 13.60850000
6207 3 9.82695000 13.72930000 13.91080000
6208 3 9.68869000 15.26960000 13.18200000
6209 3 11.93450000 14.36600000 14.63850000
6210 3 11.88510000 15.72970000 13.54710000
6211 1 20.72240000 27.22100000 43.30290000
6212 2 19.49820000 26.85040000 43.45400000
6213 2 21.57420000 26.82310000 42.38580000
6214 2 21.29420000 28.12080000 0.33987800
6215 1 22.87320000 27.43560000 42.59400000
6216 1 22.46770000 28.61190000 43.47560000
6217 3 23.51500000 27.61760000 41.68090000
6218 3 23.50660000 26.76620000 43.17740000
6219 3 22.24260000 29.42420000 42.75080000
6220 3 23.16550000 28.85920000 0.58094600
6221 1 42.33000000 25.79280000 42.47440000
6222 2 41.78960000 24.95290000 41.73920000
6223 2 42.59140000 27.05170000 42.15430000
6224 2 42.83980000 25.52690000 43.65600000
6225 1 43.22410000 27.77270000 43.20290000
6226 1 43.39340000 26.61630000 0.59875800
6227 3 42.59240000 28.54030000 43.57570000
6228 3 0.47772700 28.11860000 42.85350000
6229 3 42.97460000 26.72380000 1.59335000
6230 3 0.70168200 26.29520000 0.72702000
6231 1 20.10730000 0.37843400 43.56870000
6232 2 19.21170000 0.54345900 0.72824700
6233 2 21.20860000 43.42930000 43.82590000
6234 2 20.02430000 0.71367400 42.26680000
6235 1 21.85150000 43.19310000 42.63980000
6236 1 21.29250000 0.51399800 41.67140000
6237 3 21.52260000 42.12110000 42.51740000
6238 3 22.93780000 43.14590000 42.63900000
6239 3 21.39740000 0.30505100 40.60090000
6240 3 21.92800000 1.38303000 41.77430000
6241 1 39.81500000 33.18780000 26.97050000
6242 2 38.69240000 33.20710000 26.47700000
6243 2 40.50670000 32.12760000 27.26600000
6244 2 40.43700000 34.27970000 27.44310000
6245 1 41.75930000 32.41120000 27.94720000
6246 1 41.47520000 33.93120000 28.35790000
6247 3 42.56730000 32.27900000 27.20110000
6248 3 42.02960000 31.81080000 28.78800000
6249 3 42.40660000 34.52750000 28.31110000
6250 3 41.13060000 34.00440000 29.31350000
6251 1 7.10774000 22.72460000 28.15450000
6252 2 6.79778000 23.76360000 28.73410000
6253 2 6.30735000 21.65570000 27.98250000
6254 2 8.22719000 22.52920000 27.52010000
6255 1 7.01882000 20.55800000 27.39710000
6256 1 8.30362000 21.25390000 26.99990000
6257 3 6.45875000 20.25070000 26.54990000
6258 3 7.23944000 19.84470000 28.17770000
6259 3 8.40597000 21.38860000 25.94560000
6260 3 9.19896000 20.73510000 27.34370000
6261 1 26.50030000 18.83360000 13.61140000
6262 2 25.88550000 18.48480000 12.58990000
6263 2 26.76060000 18.03660000 14.64530000
6264 2 27.04260000 20.02890000 13.78880000
6265 1 27.64920000 18.70220000 15.55580000
6266 1 27.83410000 20.07440000 14.96550000
6267 3 28.59190000 18.28010000 15.82470000
6268 3 27.14280000 18.72280000 16.46220000
6269 3 28.84780000 20.31760000 14.80100000
6270 3 27.49950000 20.83590000 15.65750000
6271 1 5.58176000 33.80030000 30.20170000
6272 2 6.10377000 32.82540000 29.70940000
6273 2 4.55599000 34.45970000 29.63120000
6274 2 5.85655000 34.37100000 31.40210000
6275 1 4.35219000 35.67610000 30.25890000
6276 1 4.90135000 35.38850000 31.65030000
6277 3 3.28154000 36.03240000 30.23320000
6278 3 4.96704000 36.38300000 29.63510000
6279 3 4.12111000 34.97290000 32.28850000
6280 3 5.25057000 36.28170000 32.18980000
6281 1 42.27560000 22.43040000 39.89450000
6282 2 41.19730000 21.90700000 39.59840000
6283 2 42.84110000 22.26240000 41.08200000
6284 2 42.97180000 23.27160000 39.12160000
6285 1 0.51375200 22.85890000 41.04300000
6286 1 0.31838600 23.86760000 39.90700000
6287 3 1.26942000 22.10480000 40.87500000
6288 3 0.71970100 23.28030000 41.99920000
6289 3 1.10749000 24.09870000 39.27280000
6290 3 43.71900000 24.81360000 40.32390000
6291 1 19.15340000 32.53260000 2.14092000
6292 2 18.64320000 33.35870000 2.90387000
6293 2 18.53000000 31.54260000 1.62579000
6294 2 20.35150000 32.65550000 1.59990000
6295 1 19.34530000 30.83600000 0.69357400
6296 1 20.71500000 31.37010000 0.96784200
6297 3 19.01330000 31.02440000 43.39540000
6298 3 19.31520000 29.73270000 0.76163400
6299 3 21.29500000 31.56620000 43.80780000
6300 3 21.23460000 30.70370000 1.64687000
6301 1 2.22124000 41.22810000 34.77260000
6302 2 2.28408000 42.39140000 34.39380000
6303 2 3.01251000 40.25270000 34.58550000
6304 2 1.13563000 40.81970000 35.36370000
6305 1 2.59932000 39.08620000 35.33510000
6306 1 1.19262000 39.48350000 35.79550000
6307 3 3.13084000 38.94140000 36.22660000
6308 3 2.61565000 38.19770000 34.77750000
6309 3 1.09698000 39.46960000 36.93920000
6310 3 0.49178800 38.93740000 35.22110000
6311 1 7.91124000 29.83390000 14.07050000
6312 2 9.06967000 30.19810000 14.29120000
6313 2 7.42035000 28.72580000 14.58900000
6314 2 7.06599000 30.33700000 13.20300000
6315 1 6.04381000 28.67650000 14.33390000
6316 1 5.76926000 29.77760000 13.36550000
6317 3 5.40895000 28.60060000 15.20100000
6318 3 5.88310000 27.69030000 13.81230000
6319 3 4.99879000 30.53410000 13.71770000
6320 3 5.33759000 29.40370000 12.44200000
6321 1 6.22120000 34.83790000 24.66290000
6322 2 6.60542000 34.97950000 23.45730000
6323 2 5.82743000 35.93340000 25.49220000
6324 2 6.31244000 33.74450000 25.43340000
6325 1 5.21872000 35.38390000 26.62970000
6326 1 5.66810000 33.89540000 26.62270000
6327 3 4.12762000 35.47230000 26.50300000
6328 3 5.61416000 35.83320000 27.50000000
6329 3 4.86678000 33.23430000 26.61590000
6330 3 6.37568000 33.59090000 27.41020000
6331 1 8.55834000 21.40970000 16.09220000
6332 2 8.54986000 21.27870000 17.29940000
6333 2 8.23474000 20.44520000 15.27660000
6334 2 8.85723000 22.56420000 15.39210000
6335 1 8.35213000 20.84720000 13.85090000
6336 1 8.89240000 22.37480000 13.94900000
6337 3 7.38695000 20.83990000 13.46350000
6338 3 9.00579000 20.24170000 13.27260000
6339 3 8.26513000 22.96120000 13.39640000
6340 3 9.98214000 22.32700000 13.53820000
6341 1 13.64650000 43.20910000 35.80100000
6342 2 14.71420000 43.38320000 35.22980000
6343 2 12.42340000 43.50190000 35.22070000
6344 2 13.39600000 42.73930000 36.97980000
6345 1 11.38900000 43.35500000 36.14000000
6346 1 11.99430000 42.44290000 37.22090000
6347 3 10.53390000 42.95040000 35.61890000
6348 3 11.08360000 0.67174000 36.54110000
6349 3 11.73330000 41.47690000 36.82220000
6350 3 11.63820000 42.56960000 38.29430000
6351 1 38.25630000 13.52410000 5.61014000
6352 2 38.64700000 14.58430000 5.12021000
6353 2 38.08930000 13.35830000 6.93456000
6354 2 37.96090000 12.39320000 4.96977000
6355 1 37.76220000 12.03870000 7.19677000
6356 1 37.33800000 11.47890000 5.80169000
6357 3 36.87940000 11.91130000 7.84445000
6358 3 38.59970000 11.47130000 7.57829000
6359 3 36.24660000 11.42270000 5.75113000
6360 3 37.68470000 10.52740000 5.50365000
6361 1 38.48670000 22.45320000 16.84670000
6362 2 38.87950000 21.46180000 16.25120000
6363 2 38.50930000 22.61170000 18.15140000
6364 2 37.78450000 23.42290000 16.33050000
6365 1 37.80950000 23.78880000 18.68530000
6366 1 37.45160000 24.38630000 17.30990000
6367 3 38.37290000 24.36060000 19.36240000
6368 3 36.87980000 23.39110000 19.20670000
6369 3 38.07910000 25.29900000 17.15790000
6370 3 36.35370000 24.68330000 17.19370000
6371 1 26.63790000 27.73470000 9.72054000
6372 2 26.33970000 26.76240000 10.35550000
6373 2 26.03950000 28.16400000 8.59709000
6374 2 27.50670000 28.59000000 10.08040000
6375 1 26.80610000 29.25100000 8.04770000
6376 1 27.56330000 29.71990000 9.25324000
6377 3 26.12120000 30.02910000 7.62412000
6378 3 27.54630000 28.82130000 7.36549000
6379 3 27.07310000 30.62100000 9.62449000
6380 3 28.62450000 29.85630000 9.10020000
6381 1 9.85718000 19.81400000 41.99430000
6382 2 9.12668000 20.77480000 42.24880000
6383 2 9.90977000 18.75960000 42.80440000
6384 2 10.84470000 19.69870000 41.12770000
6385 1 10.90800000 17.80710000 42.37260000
6386 1 11.30070000 18.32400000 41.05570000
6387 3 10.54130000 16.83270000 42.22920000
6388 3 11.81970000 17.82050000 43.02440000
6389 3 10.74590000 17.66890000 40.31120000
6390 3 12.36780000 18.40160000 40.79950000
6391 1 2.85609000 32.28270000 1.92157000
6392 2 2.51026000 31.86060000 3.05829000
6393 2 2.10983000 32.29980000 0.85328200
6394 2 4.05105000 32.64770000 1.52116000
6395 1 2.63378000 33.07210000 43.48370000
6396 1 4.06016000 33.02670000 0.13004000
6397 3 2.32417000 34.04720000 43.45630000
6398 3 2.48447000 32.71050000 42.45790000
6399 3 4.47486000 34.00440000 43.82710000
6400 3 4.59401000 32.36890000 43.23830000
6401 1 41.47870000 18.52030000 3.04711000
6402 2 42.60670000 18.59200000 2.52891000
6403 2 40.82840000 19.58970000 3.49429000
6404 2 40.83320000 17.41260000 3.29552000
6405 1 39.51250000 19.17550000 3.80184000
6406 1 39.63520000 17.67890000 4.04423000
6407 3 38.92170000 19.42840000 2.94046000
6408 3 39.16220000 19.70150000 4.72928000
6409 3 38.85360000 17.04850000 3.67397000
6410 3 39.83270000 17.41690000 5.09978000
6411 1 17.91010000 23.04750000 4.52022000
6412 2 18.02760000 24.07860000 5.15053000
6413 2 17.05370000 22.88500000 3.65323000
6414 2 18.64080000 21.98760000 4.72212000
6415 1 16.95960000 21.48650000 3.37960000
6416 1 18.27700000 20.92490000 3.87662000
6417 3 16.49170000 21.25860000 2.38678000
6418 3 16.22570000 21.13040000 4.06857000
6419 3 18.92570000 20.84910000 3.00012000
6420 3 18.28520000 20.01350000 4.42988000
6421 1 43.00950000 40.91270000 24.54980000
6422 2 0.48443400 40.64310000 24.45300000
6423 2 42.60640000 42.15830000 24.47640000
6424 2 42.03010000 40.09380000 24.88130000
6425 1 41.13750000 42.19870000 24.41310000
6426 1 40.79940000 40.81680000 24.87090000
6427 3 40.79470000 42.23990000 23.39830000
6428 3 40.71230000 42.96490000 25.03840000
6429 3 40.09020000 40.37280000 24.23520000
6430 3 40.37240000 40.93250000 25.84470000
6431 1 36.22080000 35.55800000 28.58940000
6432 2 35.86800000 36.63660000 28.08070000
6433 2 37.22820000 35.35900000 29.40990000
6434 2 35.53450000 34.43610000 28.36260000
6435 1 37.27510000 34.01860000 29.70730000
6436 1 36.23120000 33.29900000 28.77950000
6437 3 36.81020000 34.00930000 30.69330000
6438 3 38.21850000 33.55290000 29.68950000
6439 3 35.51310000 32.61250000 29.30510000
6440 3 36.59410000 32.76220000 27.85580000
6441 1 22.86730000 3.39783000 12.54710000
6442 2 22.86220000 2.60161000 13.51820000
6443 2 23.11110000 3.02729000 11.31570000
6444 2 22.61720000 4.66165000 12.53870000
6445 1 23.26640000 4.11801000 10.42600000
6446 1 22.41980000 5.13355000 11.21080000
6447 3 23.01090000 4.01697000 9.43396000
6448 3 24.37360000 4.21205000 10.40710000
6449 3 21.35240000 5.06934000 10.96020000
6450 3 22.76590000 6.21306000 11.26420000
6451 1 25.12840000 21.17400000 20.15550000
6452 2 26.31230000 21.14890000 20.18710000
6453 2 24.42700000 22.30880000 20.32690000
6454 2 24.36230000 20.15450000 19.89920000
6455 1 23.07340000 22.05260000 20.00560000
6456 1 22.99270000 20.54150000 19.87340000
6457 3 22.91230000 22.64340000 19.08970000
6458 3 22.38720000 22.31410000 20.73610000
6459 3 22.47670000 20.24710000 18.99000000
6460 3 22.43850000 20.12400000 20.66410000
6461 1 1.93064000 8.54367000 13.86480000
6462 2 2.30785000 9.27558000 12.91550000
6463 2 1.47164000 8.96348000 14.96430000
6464 2 2.02440000 7.15235000 13.86570000
6465 1 0.66866000 7.93248000 15.56330000
6466 1 1.36118000 6.63220000 14.96380000
6467 3 43.38610000 8.03527000 15.26360000
6468 3 0.75110600 7.86586000 16.65120000
6469 3 0.57565000 6.00569000 14.67210000
6470 3 1.89448000 5.91159000 15.63260000
6471 1 19.24900000 18.57080000 20.92050000
6472 2 18.49540000 19.50690000 21.14220000
6473 2 19.34680000 17.48260000 21.71450000
6474 2 20.20760000 18.48020000 19.96430000
6475 1 20.41630000 16.61650000 21.22690000
6476 1 20.95420000 17.28540000 19.96420000
6477 3 20.04040000 15.59480000 21.12050000
6478 3 21.18240000 16.70950000 22.06380000
6479 3 20.98190000 16.72440000 19.01340000
6480 3 22.01040000 17.48690000 20.21330000
6481 1 43.35230000 13.54480000 32.72220000
6482 2 0.25717700 14.54950000 33.04840000
6483 2 43.33580000 12.98730000 31.51130000
6484 2 42.59380000 12.82410000 33.52050000
6485 1 42.75440000 11.66660000 31.61490000
6486 1 41.84200000 11.79680000 32.89740000
6487 3 43.50850000 10.93540000 31.71410000
6488 3 42.17920000 11.35710000 30.79030000
6489 3 41.75310000 10.85680000 33.55160000
6490 3 40.85440000 12.36590000 32.76530000
6491 1 16.00980000 15.42990000 35.87800000
6492 2 16.41240000 15.07340000 36.97660000
6493 2 15.05040000 16.32900000 35.66300000
6494 2 16.27810000 14.89000000 34.74630000
6495 1 14.58460000 16.38980000 34.29090000
6496 1 15.65540000 15.48930000 33.63100000
6497 3 14.56060000 17.38600000 33.83390000
6498 3 13.60460000 15.93530000 34.11510000
6499 3 16.32960000 16.05350000 32.99290000
6500 3 15.23090000 14.66050000 33.04510000
6501 1 26.59530000 33.19970000 36.74810000
6502 2 27.69760000 33.71840000 36.90130000
6503 2 26.40360000 32.13700000 36.01730000
6504 2 25.47620000 33.71200000 37.17370000
6505 1 25.09490000 31.96410000 35.67320000
6506 1 24.45770000 33.18680000 36.39760000
6507 3 24.75050000 31.00230000 35.93080000
6508 3 24.81490000 32.07010000 34.62970000
6509 3 23.62750000 33.02440000 37.02240000
6510 3 24.07620000 33.91280000 35.71050000
6511 1 17.54230000 35.32110000 42.13540000
6512 2 16.99150000 36.26400000 42.78730000
6513 2 18.68970000 35.51390000 41.39210000
6514 2 17.11290000 34.18190000 41.94660000
6515 1 19.18380000 34.23750000 41.15310000
6516 1 17.98000000 33.35590000 41.29090000
6517 3 19.98990000 34.03430000 41.81180000
6518 3 19.63420000 34.23780000 40.12710000
6519 3 18.23360000 32.45510000 41.85710000
6520 3 17.62670000 32.90210000 40.38800000
6521 1 36.55760000 17.09860000 30.45630000
6522 2 36.22640000 18.10210000 31.11990000
6523 2 35.78030000 16.13430000 30.21410000
6524 2 37.80970000 16.80670000 30.15030000
6525 1 36.48750000 15.04690000 29.73480000
6526 1 37.92770000 15.39480000 29.70920000
6527 3 36.04110000 14.68900000 28.80930000
6528 3 36.41900000 14.33220000 30.57040000
6529 3 38.37670000 15.29210000 28.67860000
6530 3 38.46230000 14.79910000 30.45990000
6531 1 31.41430000 17.24910000 22.52240000
6532 2 31.70950000 16.55910000 23.46490000
6533 2 31.70910000 17.02940000 21.23670000
6534 2 30.69780000 18.29010000 22.56270000
6535 1 31.34070000 18.10740000 20.41770000
6536 1 30.63700000 18.97740000 21.36870000
6537 3 30.68800000 17.72860000 19.64070000
6538 3 32.18660000 18.53770000 19.96010000
6539 3 29.61560000 19.16550000 21.08270000
6540 3 31.01140000 19.99750000 21.40930000
6541 1 29.25220000 11.55180000 39.90190000
6542 2 30.18290000 12.19700000 40.33280000
6543 2 28.10510000 12.03300000 39.67610000
6544 2 29.26810000 10.33090000 39.62090000
6545 1 27.15600000 11.04960000 39.39990000
6546 1 28.10890000 9.93654000 39.02930000
6547 3 26.59550000 11.25620000 38.49950000
6548 3 26.41780000 10.82910000 40.24620000
6549 3 28.06690000 9.86040000 37.99580000
6550 3 27.94190000 8.90270000 39.37640000
6551 1 34.28970000 27.12120000 34.70880000
6552 2 33.71040000 28.20700000 34.70970000
6553 2 34.14710000 26.26870000 33.71380000
6554 2 35.04960000 26.58950000 35.69720000
6555 1 34.73720000 25.04950000 34.05830000
6556 1 35.21170000 25.24120000 35.47400000
6557 3 35.45040000 24.80080000 33.23280000
6558 3 33.94330000 24.28820000 34.17230000
6559 3 36.21160000 24.96790000 35.42830000
6560 3 34.60900000 24.67140000 36.22980000
6561 1 12.33910000 12.95980000 27.95330000
6562 2 13.35560000 12.99870000 28.62420000
6563 2 11.46810000 11.93190000 27.67520000
6564 2 11.87940000 14.00630000 27.37530000
6565 1 10.44440000 12.31110000 26.74400000
6566 1 10.56550000 13.83220000 26.80360000
6567 3 9.46157000 11.92940000 27.16290000
6568 3 10.58060000 11.94440000 25.71080000
6569 3 9.74221000 14.18850000 27.40450000
6570 3 10.45120000 14.21220000 25.76810000
6571 1 24.79150000 21.46910000 16.26830000
6572 2 24.56910000 20.32460000 16.69920000
6573 2 24.99840000 21.76300000 15.04390000
6574 2 24.93350000 22.56960000 17.02380000
6575 1 25.23800000 23.15180000 14.82930000
6576 1 25.48160000 23.63970000 16.27600000
6577 3 24.32670000 23.56870000 14.49890000
6578 3 25.99700000 23.35990000 14.07690000
6579 3 25.02250000 24.65700000 16.43560000
6580 3 26.55870000 23.78000000 16.35220000
6581 1 43.19390000 16.17270000 23.86580000
6582 2 42.55000000 15.62450000 22.96150000
6583 2 0.32841800 17.13580000 23.59940000
6584 2 43.06240000 16.01290000 25.17470000
6585 1 0.71434400 17.73460000 24.82110000
6586 1 43.63400000 17.06610000 25.96030000
6587 3 0.41469800 18.82850000 24.83480000
6588 3 1.77425000 17.56070000 24.94870000
6589 3 42.81690000 17.65630000 26.45310000
6590 3 0.49861000 16.53830000 26.69940000
6591 1 22.46460000 27.24880000 7.46901000
6592 2 21.95180000 26.26220000 7.92253000
6593 2 22.57910000 28.44310000 8.08306000
6594 2 23.05130000 27.27970000 6.26564000
6595 1 23.16230000 29.36850000 7.22824000
6596 1 23.77290000 28.45790000 6.12822000
6597 3 23.76420000 30.01520000 7.86668000
6598 3 22.29560000 29.93660000 6.87362000
6599 3 24.86710000 28.41670000 6.23499000
6600 3 23.48490000 28.83260000 5.21118000
6601 1 1.54867000 11.34140000 28.93900000
6602 2 1.40452000 10.16940000 28.73210000
6603 2 0.82933900 12.27140000 28.45540000
6604 2 2.45918000 11.91180000 29.70220000
6605 1 1.17223000 13.56560000 28.76010000
6606 1 2.31846000 13.30780000 29.68400000
6607 3 0.38313400 14.10070000 29.22860000
6608 3 1.65312000 14.07260000 27.95380000
6609 3 2.06380000 13.65170000 30.59980000
6610 3 3.18641000 13.91780000 29.31160000
6611 1 13.24230000 38.36950000 39.34850000
6612 2 13.07170000 39.05110000 38.37800000
6613 2 14.24010000 38.54350000 40.24920000
6614 2 12.51000000 37.26580000 39.62530000
6615 1 14.22970000 37.49670000 41.20510000
6616 1 13.19810000 36.53170000 40.62710000
6617 3 13.86030000 37.96270000 42.13840000
6618 3 15.19750000 37.03700000 41.39480000
6619 3 12.45060000 36.31610000 41.37840000
6620 3 13.46880000 35.53590000 40.31400000
6621 1 19.49490000 38.94150000 1.50755000
6622 2 18.80640000 39.87910000 1.11946000
6623 2 19.21870000 37.63740000 1.37182000
6624 2 20.60310000 39.11530000 2.18669000
6625 1 20.07970000 36.81710000 2.12679000
6626 1 21.13230000 37.85520000 2.60969000
6627 3 20.42690000 35.99020000 1.51881000
6628 3 19.63070000 36.30880000 2.96014000
6629 3 22.11170000 37.58870000 2.23299000
6630 3 21.18840000 37.71700000 3.67647000
6631 1 36.64480000 31.94590000 20.45220000
6632 2 37.05090000 32.28500000 19.35070000
6633 2 35.44190000 31.73140000 20.77820000
6634 2 37.40570000 31.75490000 21.46050000
6635 1 35.28000000 31.19150000 22.10200000
6636 1 36.73750000 31.00420000 22.44660000
6637 3 34.64320000 30.25820000 21.92300000
6638 3 34.79910000 31.85210000 22.80190000
6639 3 36.97010000 29.99880000 22.38720000
6640 3 36.96030000 31.32630000 23.54200000
6641 1 42.54430000 23.09020000 28.63600000
6642 2 42.43890000 23.15520000 29.87440000
6643 2 41.63250000 22.59670000 27.74990000
6644 2 43.56950000 23.54820000 27.97110000
6645 1 42.10890000 22.51410000 26.44680000
6646 1 43.42390000 23.34480000 26.55530000
6647 3 41.36920000 22.61630000 25.69490000
6648 3 42.29660000 21.38350000 26.37270000
6649 3 43.22780000 24.27530000 25.97860000
6650 3 0.67616600 22.88920000 26.16150000
6651 1 10.27360000 6.52248000 15.38600000
6652 2 11.43870000 6.58550000 15.05630000
6653 2 9.69195000 5.40901000 15.76700000
6654 2 9.31326000 7.46594000 15.27730000
6655 1 8.36479000 5.58137000 16.11130000
6656 1 8.08084000 6.98744000 15.68550000
6657 3 8.29958000 5.67292000 17.22020000
6658 3 7.73161000 4.88653000 15.63970000
6659 3 7.62230000 7.54311000 16.59790000
6660 3 7.31075000 7.08787000 14.89120000
6661 1 37.27730000 27.01550000 14.33040000
6662 2 37.81600000 27.89760000 14.87950000
6663 2 37.66890000 25.73850000 14.33000000
6664 2 36.20700000 27.13130000 13.49030000
6665 1 37.02540000 24.87240000 13.48060000
6666 1 35.80450000 25.74550000 13.17620000
6667 3 36.65610000 23.97030000 13.99280000
6668 3 37.71760000 24.75200000 12.62090000
6669 3 35.00550000 25.48950000 13.80120000
6670 3 35.47510000 25.71110000 12.17480000
6671 1 22.51780000 31.05470000 16.17370000
6672 2 22.34710000 30.78330000 15.01020000
6673 2 22.28810000 30.16780000 17.11870000
6674 2 22.73580000 32.17700000 16.65540000
6675 1 22.64150000 30.59330000 18.40610000
6676 1 22.82880000 32.10630000 18.08460000
6677 3 23.56690000 29.98850000 18.64990000
6678 3 21.78080000 30.47200000 19.08690000
6679 3 23.75980000 32.43610000 18.41510000
6680 3 22.07590000 32.72840000 18.43960000
6681 1 23.02600000 39.15480000 42.41870000
6682 2 22.21800000 38.85220000 41.51120000
6683 2 23.20450000 38.43540000 43.49440000
6684 2 23.69700000 40.26350000 42.46850000
6685 1 24.14180000 38.92700000 0.61566100
6686 1 24.37670000 40.34450000 43.74260000
6687 3 25.04490000 38.28100000 0.48587000
6688 3 23.95110000 38.98620000 1.68115000
6689 3 25.44530000 40.60880000 0.09109260
6690 3 23.75780000 40.95350000 0.62677600
6691 1 7.42687000 37.66750000 34.84610000
6692 2 8.12705000 37.03270000 35.61860000
6693 2 6.48967000 38.54010000 35.24810000
6694 2 7.43796000 37.55000000 33.50560000
6695 1 5.76490000 38.92850000 34.10710000
6696 1 6.64469000 38.56160000 32.92840000
6697 3 5.42465000 39.95380000 33.94880000
6698 3 4.93151000 38.28810000 33.96440000
6699 3 7.32428000 39.37990000 32.63790000
6700 3 6.04100000 38.15900000 32.05200000
6701 1 38.25150000 21.99170000 10.26120000
6702 2 38.32080000 23.13970000 10.74750000
6703 2 38.33390000 20.83480000 10.92930000
6704 2 37.98860000 21.78570000 9.01527000
6705 1 38.01560000 19.79880000 10.03840000
6706 1 37.78720000 20.44490000 8.66470000
6707 3 37.07860000 19.47080000 10.33270000
6708 3 38.79690000 19.07440000 10.05210000
6709 3 36.87490000 20.22960000 8.17756000
6710 3 38.52470000 20.10620000 7.96459000
6711 1 15.94340000 28.99110000 1.20232000
6712 2 15.79970000 29.52760000 2.30603000
6713 2 16.20830000 27.72300000 0.94946300
6714 2 15.81400000 29.57800000 43.61340000
6715 1 15.85040000 27.27590000 43.39260000
6716 1 16.01730000 28.58550000 42.58900000
6717 3 14.89320000 26.87810000 43.39270000
6718 3 16.55110000 26.54110000 43.07760000
6719 3 15.42410000 28.73780000 41.69030000
6720 3 17.06490000 28.60830000 42.35090000
6721 1 18.01050000 7.04782000 20.30480000
6722 2 19.13940000 6.96535000 19.91190000
6723 2 16.88470000 6.91820000 19.57130000
6724 2 17.72290000 7.33926000 21.49660000
6725 1 15.71340000 6.91418000 20.38210000
6726 1 16.30130000 7.42701000 21.66460000
6727 3 15.33220000 5.89453000 20.63260000
6728 3 14.95790000 7.56392000 19.86990000
6729 3 15.96330000 6.85128000 22.53250000
6730 3 16.12160000 8.54134000 21.77950000
6731 1 8.15882000 31.50130000 42.36460000
6732 2 7.53267000 30.42290000 42.15060000
6733 2 8.27214000 32.23280000 43.51460000
6734 2 8.76714000 32.25050000 41.39390000
6735 1 8.86882000 33.54810000 43.27310000
6736 1 9.47759000 33.37420000 41.95270000
6737 3 9.63374000 33.82140000 0.23980900
6738 3 8.12160000 34.31460000 43.14810000
6739 3 10.54210000 33.01110000 42.21700000
6740 3 9.58725000 34.25230000 41.33330000
6741 1 22.81020000 35.95530000 8.71919000
6742 2 23.49960000 35.04780000 8.24006000
6743 2 22.20000000 35.91460000 9.84874000
6744 2 22.58100000 37.15430000 8.15361000
6745 1 21.47060000 37.16060000 10.10850000
6746 1 21.92170000 38.10800000 9.01193000
6747 3 21.64530000 37.45910000 11.15480000
6748 3 20.38830000 36.92130000 10.04920000
6749 3 22.52180000 38.98910000 9.34423000
6750 3 21.06090000 38.62920000 8.42776000
6751 1 34.93920000 20.72760000 23.37660000
6752 2 35.76010000 21.18560000 22.58910000
6753 2 34.84390000 21.08740000 24.68270000
6754 2 33.96050000 19.85810000 23.09400000
6755 1 33.81820000 20.38700000 25.31240000
6756 1 33.24060000 19.51120000 24.20680000
6757 3 33.16590000 20.99160000 25.79880000
6758 3 34.14880000 19.80070000 26.15820000
6759 3 32.25460000 19.85820000 23.95810000
6760 3 33.28490000 18.42810000 24.46590000
6761 1 2.32325000 27.89910000 3.22526000
6762 2 2.24005000 27.37670000 2.12071000
6763 2 3.52086000 28.30110000 3.72372000
6764 2 1.34120000 28.04050000 4.14442000
6765 1 3.36970000 28.81000000 5.06390000
6766 1 1.90064000 28.56920000 5.32101000
6767 3 3.62931000 29.87770000 5.10107000
6768 3 3.96928000 28.27530000 5.78590000
6769 3 1.43656000 29.52740000 5.61660000
6770 3 1.93278000 27.98700000 6.22338000
6771 1 12.92980000 43.68100000 23.11900000
6772 2 13.99550000 43.22990000 22.79220000
6773 2 12.06060000 42.97530000 23.81570000
6774 2 12.53270000 1.29255000 23.16140000
6775 1 10.88300000 43.71380000 24.05710000
6776 1 11.18850000 1.37068000 23.59000000
6777 3 10.71290000 43.72290000 25.10840000
6778 3 10.08350000 43.12660000 23.52160000
6779 3 11.04290000 2.17661000 24.37670000
6780 3 10.41300000 1.59474000 22.81750000
6781 1 0.66842000 14.65770000 42.91800000
6782 2 1.58666000 13.93880000 42.40410000
6783 2 43.06060000 14.41860000 42.72420000
6784 2 0.91253300 15.69840000 43.73590000
6785 1 42.37470000 15.35210000 43.49420000
6786 1 43.39880000 16.25130000 0.47056100
6787 3 41.77110000 14.89400000 0.54470600
6788 3 41.72090000 15.96930000 42.88950000
6789 3 43.37060000 16.15980000 1.54457000
6790 3 43.40550000 17.29780000 0.23516400
6791 1 23.95890000 26.26480000 30.31380000
6792 2 23.13850000 25.92720000 31.16520000
6793 2 23.98270000 25.83210000 29.08420000
6794 2 25.04120000 26.95390000 30.55350000
6795 1 25.17120000 26.18200000 28.31210000
6796 1 25.73200000 27.24030000 29.29170000
6797 3 24.86340000 26.51150000 27.33840000
6798 3 25.77060000 25.27400000 28.11690000
6799 3 25.54480000 28.22160000 28.79900000
6800 3 26.78100000 27.02610000 29.39650000
6801 1 33.34670000 21.58130000 19.74460000
6802 2 33.42680000 20.54890000 19.07420000
6803 2 32.46560000 21.84740000 20.67540000
6804 2 34.12800000 22.65170000 19.63610000
6805 1 32.74150000 23.02190000 21.32920000
6806 1 33.68420000 23.71810000 20.37940000
6807 3 33.16910000 22.85670000 22.38020000
6808 3 31.78590000 23.58050000 21.44570000
6809 3 34.41680000 24.30140000 20.90830000
6810 3 33.10010000 24.37730000 19.74510000
6811 1 23.25700000 15.86460000 40.66540000
6812 2 23.44080000 14.71640000 41.00660000
6813 2 22.81540000 16.28090000 39.46380000
6814 2 23.43920000 16.94280000 41.45470000
6815 1 22.82500000 17.68190000 39.48780000
6816 1 23.47740000 18.14450000 40.77200000
6817 3 21.72380000 17.91300000 39.53160000
6818 3 23.34440000 18.16270000 38.64090000
6819 3 23.02860000 19.02070000 41.27850000
6820 3 24.57140000 18.32780000 40.54180000
6821 1 29.00710000 24.08340000 14.09600000
6822 2 29.34740000 24.59840000 15.20710000
6823 2 28.91750000 24.83580000 12.94230000
6824 2 28.84470000 22.84230000 13.76420000
6825 1 28.65470000 24.06800000 11.79730000
6826 1 28.65580000 22.64960000 12.34050000
6827 3 29.43420000 24.12390000 11.01230000
6828 3 27.58830000 24.25060000 11.37040000
6829 3 29.51090000 22.13080000 12.02670000
6830 3 27.76610000 22.05770000 12.02840000
6831 1 5.71367000 34.95170000 7.34589000
6832 2 4.67963000 34.82770000 6.69127000
6833 2 6.66142000 34.01600000 7.43619000
6834 2 6.14600000 36.00130000 8.03547000
6835 1 7.85513000 34.37910000 8.03998000
6836 1 7.48255000 35.85540000 8.55638000
6837 3 8.72675000 34.36050000 7.43121000
6838 3 8.12429000 33.68000000 8.87334000
6839 3 8.03112000 36.61110000 8.04445000
6840 3 7.57433000 35.93910000 9.62248000
6841 1 14.79920000 17.63180000 42.17290000
6842 2 14.61420000 18.85480000 42.02110000
6843 2 14.06210000 16.83620000 42.93090000
6844 2 15.74950000 16.92280000 41.59240000
6845 1 14.53650000 15.49080000 42.76380000
6846 1 15.71220000 15.58680000 41.84660000
6847 3 13.90920000 14.74740000 42.33620000
6848 3 14.82980000 15.03530000 43.67410000
6849 3 15.64840000 15.00320000 40.82770000
6850 3 16.71000000 15.25580000 42.27900000
6851 1 21.76780000 18.90570000 3.39297000
6852 2 20.56090000 18.92210000 3.64919000
6853 2 22.77350000 19.75340000 3.82512000
6854 2 22.34900000 17.97790000 2.60183000
6855 1 23.99800000 19.46410000 3.19174000
6856 1 23.70130000 18.11040000 2.53446000
6857 3 24.88380000 19.49340000 3.82804000
6858 3 24.10540000 20.17930000 2.38810000
6859 3 24.22390000 17.26150000 3.09892000
6860 3 24.10840000 18.05230000 1.60334000
6861 1 28.64530000 5.16419000 8.30066000
6862 2 28.19500000 4.06333000 8.42135000
6863 2 28.41450000 6.15144000 9.19277000
6864 2 29.61160000 5.48861000 7.59152000
6865 1 29.17690000 7.28568000 8.88232000
6866 1 30.20320000 6.76020000 7.97231000
6867 3 29.57230000 7.70771000 9.79469000
6868 3 28.59870000 8.01844000 8.40814000
6869 3 31.14250000 6.72132000 8.47342000
6870 3 30.25390000 7.47883000 7.18781000
6871 1 2.65628000 14.63860000 36.50140000
6872 2 3.65352000 13.93130000 36.34970000
6873 2 2.67420000 16.00440000 36.44580000
6874 2 1.46194000 14.25140000 36.72280000
6875 1 1.43650000 16.51510000 36.54620000
6876 1 0.50264300 15.28810000 36.61230000
6877 3 1.11577000 17.01910000 35.59700000
6878 3 1.31403000 17.21030000 37.40110000
6879 3 43.66040000 15.27850000 35.65530000
6880 3 43.46600000 15.41880000 37.41780000
6881 1 42.57770000 11.75640000 40.45710000
6882 2 43.08950000 11.11690000 41.41710000
6883 2 41.93860000 12.85560000 40.64560000
6884 2 42.61530000 11.46290000 39.10370000
6885 1 41.73600000 13.50420000 39.42700000
6886 1 41.82730000 12.34230000 38.40240000
6887 3 42.54730000 14.20350000 39.28960000
6888 3 40.74580000 14.00350000 39.41430000
6889 3 42.37740000 12.60770000 37.50250000
6890 3 40.86850000 11.77450000 38.09680000
6891 1 29.31480000 20.99340000 18.39500000
6892 2 29.58350000 19.88880000 18.04140000
6893 2 28.79500000 21.80580000 17.61580000
6894 2 29.59410000 21.48740000 19.57210000
6895 1 28.56870000 23.03150000 18.26420000
6896 1 29.35360000 22.86320000 19.55090000
6897 3 27.54210000 23.23610000 18.51630000
6898 3 29.02750000 23.77810000 17.58160000
6899 3 28.88340000 23.31980000 20.38790000
6900 3 30.40120000 23.35700000 19.46610000
6901 1 22.21650000 38.49390000 31.70080000
6902 2 21.27630000 37.78570000 31.99500000
6903 2 22.17710000 39.64680000 31.01130000
6904 2 23.49340000 38.29970000 32.03530000
6905 1 23.39630000 40.34220000 31.07170000
6906 1 24.33660000 39.24590000 31.43600000
6907 3 23.59200000 40.99520000 31.87870000
6908 3 23.77150000 40.80550000 30.12310000
6909 3 25.21080000 39.65300000 31.97060000
6910 3 24.59310000 38.80830000 30.49020000
6911 1 7.62268000 39.90360000 42.56020000
6912 2 8.52366000 40.32490000 41.83170000
6913 2 7.60990000 39.93610000 43.79460000
6914 2 6.47578000 39.32390000 42.13680000
6915 1 6.37288000 39.46370000 0.65517500
6916 1 5.65830000 38.74970000 43.13930000
6917 3 5.69046000 40.26970000 0.99058500
6918 3 6.36686000 38.81350000 1.46826000
6919 3 4.58565000 39.00270000 42.98980000
6920 3 5.77638000 37.69180000 43.30440000
6921 1 13.93290000 34.12630000 43.78430000
6922 2 13.06300000 34.46310000 42.96110000
6923 2 14.72570000 33.05160000 43.62330000
6924 2 14.22550000 34.77660000 1.14250000
6925 1 15.67260000 33.03720000 0.93722100
6926 1 15.42080000 34.35720000 1.60084000
6927 3 16.70160000 33.00030000 0.54856800
6928 3 15.31480000 32.10290000 1.44754000
6929 3 16.14960000 35.13230000 1.34510000
6930 3 15.37840000 34.08690000 2.66361000
6931 1 39.36170000 34.41820000 32.63390000
6932 2 39.34100000 33.31620000 32.14070000
6933 2 38.95830000 35.64410000 32.10410000
6934 2 39.96290000 34.66710000 33.84080000
6935 1 38.98050000 36.63100000 33.17950000
6936 1 40.04190000 36.03650000 34.12540000
6937 3 38.04760000 36.85350000 33.61140000
6938 3 39.27290000 37.55860000 32.82230000
6939 3 39.73580000 36.26210000 35.17340000
6940 3 41.03630000 36.41200000 33.95730000
6941 1 34.78190000 11.35090000 41.63920000
6942 2 34.18040000 10.43160000 42.16580000
6943 2 34.95800000 11.59200000 40.27690000
6944 2 35.79180000 12.05550000 42.22490000
6945 1 35.93730000 12.54980000 39.89910000
6946 1 36.66230000 12.60550000 41.22630000
6947 3 35.48660000 13.44310000 39.62660000
6948 3 36.57590000 12.29460000 39.10150000
6949 3 36.85710000 13.63660000 41.62440000
6950 3 37.63150000 12.02150000 41.12430000
6951 1 22.54860000 4.26254000 0.82633200
6952 2 22.66850000 3.08510000 0.44954200
6953 2 22.55450000 5.26156000 43.70390000
6954 2 22.34000000 4.68885000 2.01530000
6955 1 22.45160000 6.48911000 0.69250900
6956 1 21.89310000 6.04402000 2.07463000
6957 3 21.84350000 7.24824000 43.83450000
6958 3 23.45440000 6.96109000 0.81879200
6959 3 20.83920000 6.16166000 2.06889000
6960 3 22.46610000 6.52695000 2.87770000
6961 1 4.84413000 10.01880000 9.09724000
6962 2 5.85162000 10.50180000 9.63376000
6963 2 3.97476000 9.16239000 9.67725000
6964 2 4.27417000 10.48680000 7.98830000
6965 1 2.95240000 8.86199000 8.75990000
6966 1 2.89021000 10.18430000 7.89907000
6967 3 1.97368000 8.70581000 9.31144000
6968 3 3.15107000 8.07780000 8.10761000
6969 3 2.18666000 10.91580000 8.31793000
6970 3 2.40225000 10.03560000 6.89449000
6971 1 40.71960000 35.77680000 14.34650000
6972 2 41.69960000 36.43080000 14.62610000
6973 2 40.37190000 35.36020000 13.12540000
6974 2 39.79650000 35.41230000 15.25020000
6975 1 39.14460000 34.63100000 13.28110000
6976 1 38.63980000 34.93500000 14.67640000
6977 3 39.28790000 33.59570000 13.17390000
6978 3 38.39090000 34.79570000 12.56720000
6979 3 38.23480000 34.06560000 15.16370000
6980 3 38.04480000 35.80960000 14.48420000
6981 1 28.24120000 24.70790000 24.29670000
6982 2 27.75130000 23.69300000 24.73250000
6983 2 29.38430000 25.23160000 24.63060000
6984 2 27.77890000 25.41680000 23.26200000
6985 1 29.75940000 26.27820000 23.70560000
6986 1 28.43550000 26.62300000 23.04440000
6987 3 30.56360000 26.03210000 22.98930000
6988 3 30.15750000 27.07570000 24.34090000
6989 3 28.46870000 26.99230000 22.04120000
6990 3 28.00910000 27.41020000 23.66810000
6991 1 30.58290000 26.05770000 19.71710000
6992 2 31.00330000 25.52130000 20.69880000
6993 2 30.03800000 27.28250000 19.67590000
6994 2 30.64280000 25.54810000 18.52770000
6995 1 29.86840000 27.69550000 18.33430000
6996 1 30.18320000 26.45760000 17.52040000
6997 3 30.53580000 28.52750000 18.03440000
6998 3 28.84290000 27.91210000 18.16690000
6999 3 31.02790000 26.63910000 16.80610000
7000 3 29.25530000 26.18340000 17.04240000
7001 1 22.31730000 27.73830000 25.01730000
7002 2 22.71670000 27.33870000 23.91460000
7003 2 21.38990000 28.70170000 25.34880000
7004 2 22.90450000 27.38070000 26.11810000
7005 1 21.32320000 28.97670000 26.76150000
7006 1 22.27760000 27.92460000 27.29170000
7007 3 20.30620000 28.95480000 27.20090000
7008 3 21.83490000 29.90360000 26.90720000
7009 3 21.63640000 27.15220000 27.78230000
7010 3 22.92810000 28.42770000 27.97880000
7011 1 15.31130000 9.81389000 5.06074000
7012 2 15.27560000 10.70140000 5.86506000
7013 2 15.47570000 9.96489000 3.78412000
7014 2 15.12650000 8.54078000 5.35008000
7015 1 15.64490000 8.69255000 3.18282000
7016 1 15.23750000 7.69975000 4.23377000
7017 3 16.67480000 8.46543000 3.03650000
7018 3 15.06020000 8.67533000 2.29798000
7019 3 15.96180000 6.94126000 4.45612000
7020 3 14.28120000 7.22829000 4.01727000
7021 1 4.79436000 21.89830000 18.12040000
7022 2 5.06922000 22.97820000 18.64190000
7023 2 5.18513000 21.41870000 16.92290000
7024 2 4.07884000 20.88150000 18.75960000
7025 1 4.40888000 20.34840000 16.58290000
7026 1 3.86648000 19.83370000 17.87750000
7027 3 5.01795000 19.62080000 16.11850000
7028 3 3.61416000 20.58520000 15.89530000
7029 3 4.53773000 19.04120000 18.20740000
7030 3 2.82592000 19.39370000 17.95180000
7031 1 5.45335000 42.94830000 38.96590000
7032 2 5.89211000 0.20388400 38.38750000
7033 2 5.12429000 41.76440000 38.33310000
7034 2 5.19128000 42.83370000 40.24260000
7035 1 4.53617000 40.90280000 39.18720000
7036 1 4.71900000 41.60140000 40.52260000
7037 3 5.03778000 39.93300000 39.17650000
7038 3 3.57991000 40.81120000 38.95690000
7039 3 5.39371000 41.05550000 41.15180000
7040 3 3.80135000 41.73150000 41.08220000
7041 1 20.65810000 42.52250000 25.61380000
7042 2 19.62370000 42.97090000 25.12210000
7043 2 20.80380000 41.34330000 26.18700000
7044 2 21.79410000 43.26240000 25.71570000
7045 1 22.05970000 41.19640000 26.75830000
7046 1 22.79310000 42.48050000 26.33930000
7047 3 22.45780000 40.32360000 26.35090000
7048 3 22.00030000 40.94100000 27.83190000
7049 3 23.59960000 42.21830000 25.63320000
7050 3 23.12670000 42.97220000 27.18120000
7051 1 41.84420000 8.80975000 28.97730000
7052 2 42.31870000 8.36783000 30.00240000
7053 2 41.62390000 10.07090000 28.63560000
7054 2 41.62430000 8.01861000 27.94370000
7055 1 40.98060000 10.14380000 27.37910000
7056 1 41.41790000 8.77185000 26.78220000
7057 3 41.30100000 10.99960000 26.84190000
7058 3 39.92680000 10.17810000 27.48090000
7059 3 42.37360000 8.89878000 26.32200000
7060 3 40.82100000 8.22984000 26.03560000
7061 1 41.71240000 17.85640000 38.12040000
7062 2 42.05870000 17.67030000 36.97140000
7063 2 42.38030000 17.40060000 39.21880000
7064 2 40.61330000 18.45240000 38.45270000
7065 1 41.75400000 17.76230000 40.36850000
7066 1 40.41560000 18.34440000 39.84070000
7067 3 42.45750000 18.45340000 40.83100000
7068 3 41.61990000 16.84770000 40.94930000
7069 3 40.23890000 19.33030000 40.13640000
7070 3 39.57140000 17.74690000 39.96230000
7071 1 2.54118000 3.87259000 9.32485000
7072 2 3.73519000 3.76659000 9.66669000
7073 2 1.62337000 4.51503000 10.03080000
7074 2 1.93199000 3.07484000 8.37287000
7075 1 0.30565200 4.28301000 9.71620000
7076 1 0.52772300 3.30816000 8.46078000
7077 3 43.56180000 5.20412000 9.42038000
7078 3 43.58480000 3.81291000 10.63900000
7079 3 0.23835000 3.75429000 7.51837000
7080 3 43.66080000 2.44526000 8.52572000
7081 1 22.17610000 22.31540000 30.30860000
7082 2 21.48030000 22.09480000 29.32220000
7083 2 21.73330000 22.38260000 31.48040000
7084 2 23.55280000 22.51430000 30.27630000
7085 1 22.68640000 22.69910000 32.45360000
7086 1 23.98390000 22.48460000 31.67870000
7087 3 22.62290000 22.01650000 33.35550000
7088 3 22.64260000 23.75530000 32.76690000
7089 3 24.46710000 21.49490000 31.91880000
7090 3 24.73390000 23.26180000 31.96840000
7091 1 17.43180000 19.34930000 6.76573000
7092 2 17.66960000 20.32420000 7.46821000
7093 2 18.08540000 18.28430000 6.76708000
7094 2 16.40640000 19.29500000 5.91793000
7095 1 17.43920000 17.35560000 5.84331000
7096 1 16.53940000 18.20490000 5.06546000
7097 3 16.94160000 16.63220000 6.49605000
7098 3 18.15550000 16.75430000 5.27636000
7099 3 15.54000000 17.83260000 4.85431000
7100 3 16.99450000 18.38010000 4.10711000
7101 1 3.55023000 8.83503000 26.44320000
7102 2 4.58091000 8.89571000 27.03850000
7103 2 2.94364000 9.86268000 25.79550000
7104 2 2.78160000 7.78316000 26.28090000
7105 1 1.67132000 9.57120000 25.26920000
7106 1 1.83401000 8.06902000 25.29600000
7107 3 1.46023000 9.75501000 24.14740000
7108 3 0.84794200 9.84078000 25.95540000
7109 3 2.26437000 7.79264000 24.33270000
7110 3 0.93020800 7.52369000 25.35030000
7111 1 40.55000000 8.04080000 18.82340000
7112 2 40.44620000 9.18991000 19.22600000
7113 2 41.36450000 7.67712000 17.83740000
7114 2 39.96280000 6.98892000 19.34930000
7115 1 41.62920000 6.34622000 17.80340000
7116 1 40.52800000 5.84559000 18.72270000
7117 3 42.73370000 6.17675000 18.08850000
7118 3 41.60880000 6.06605000 16.79490000
7119 3 40.75060000 4.94782000 19.30520000
7120 3 39.86950000 5.47794000 17.97170000
7121 1 5.39518000 8.95308000 34.52670000
7122 2 4.94619000 9.97842000 34.94010000
7123 2 5.40888000 7.79144000 35.17940000
7124 2 6.02167000 8.83421000 33.40480000
7125 1 6.08434000 6.82273000 34.40630000
7126 1 6.53004000 7.57855000 33.16090000
7127 3 5.40878000 6.00114000 34.05460000
7128 3 6.84711000 6.37131000 35.01920000
7129 3 5.99051000 7.18245000 32.25760000
7130 3 7.65543000 7.61830000 32.91220000
7131 1 10.85680000 31.19140000 30.09520000
7132 2 11.83930000 30.52330000 29.87050000
7133 2 10.37840000 32.15600000 29.30050000
7134 2 10.01770000 30.98160000 31.05100000
7135 1 9.03083000 32.45450000 29.51360000
7136 1 8.91055000 31.82720000 30.94670000
7137 3 8.50798000 31.89860000 28.79770000
7138 3 8.73947000 33.51690000 29.43670000
7139 3 8.11698000 31.19070000 31.12140000
7140 3 9.06260000 32.58250000 31.73810000
7141 1 37.69100000 25.98360000 27.47420000
7142 2 36.87650000 26.06490000 26.54480000
7143 2 38.76920000 25.28750000 27.35090000
7144 2 37.63360000 26.63360000 28.61550000
7145 1 39.52710000 25.29590000 28.56170000
7146 1 38.83530000 26.44950000 29.36030000
7147 3 40.54850000 25.52420000 28.42210000
7148 3 39.49760000 24.32590000 29.11950000
7149 3 39.48320000 27.34380000 29.28980000
7150 3 38.76200000 26.37410000 30.48690000
7151 1 27.73970000 6.67578000 3.22290000
7152 2 28.58420000 5.95351000 2.61465000
7153 2 26.46110000 6.47799000 3.15330000
7154 2 27.90910000 7.76869000 3.97344000
7155 1 25.67420000 7.36229000 3.92102000
7156 1 26.71650000 8.43626000 4.16693000
7157 3 25.50640000 6.83350000 4.89218000
7158 3 24.71450000 7.56902000 3.41790000
7159 3 26.40510000 8.81899000 5.07452000
7160 3 26.62330000 9.26388000 3.39857000
7161 1 6.31531000 38.68510000 19.94210000
7162 2 5.73392000 39.67900000 19.38050000
7163 2 7.02395000 38.84240000 21.07320000
7164 2 6.18848000 37.42380000 19.60320000
7165 1 7.25409000 37.56400000 21.62760000
7166 1 6.99402000 36.60350000 20.39890000
7167 3 6.54341000 37.33780000 22.43660000
7168 3 8.25110000 37.60820000 21.97340000
7169 3 6.50023000 35.70060000 20.75590000
7170 3 7.88745000 36.42800000 19.88510000
7171 1 16.82100000 19.11720000 35.79490000
7172 2 17.51430000 18.38910000 36.47660000
7173 2 16.47980000 20.31290000 36.13800000
7174 2 16.43230000 18.80210000 34.54400000
7175 1 16.02850000 20.90820000 34.99970000
7176 1 15.64660000 19.83050000 34.00380000
7177 3 16.72280000 21.55840000 34.49650000
7178 3 15.13060000 21.45230000 35.20550000
7179 3 16.00190000 20.16750000 33.02140000
7180 3 14.61740000 19.45030000 33.98160000
7181 1 7.44833000 30.59610000 3.12767000
7182 2 8.26777000 29.96860000 2.41426000
7183 2 6.20491000 30.28090000 3.40709000
7184 2 7.71771000 31.79670000 3.46464000
7185 1 5.68436000 31.22610000 4.28913000
7186 1 6.55471000 32.45930000 3.94906000
7187 3 5.81859000 30.83130000 5.30561000
7188 3 4.64561000 31.50790000 4.10548000
7189 3 6.89665000 33.06230000 4.76256000
7190 3 6.18190000 33.14550000 3.14653000
7191 1 35.93960000 4.55501000 12.71390000
7192 2 36.19370000 5.69920000 13.00300000
7193 2 36.79920000 3.67113000 12.33640000
7194 2 34.72420000 4.00316000 12.63520000
7195 1 36.26490000 2.36340000 12.16760000
7196 1 34.77570000 2.68321000 12.19480000
7197 3 36.44710000 1.65368000 12.98010000
7198 3 36.60000000 1.88630000 11.25920000
7199 3 34.28110000 2.01470000 12.93050000
7200 3 34.37680000 2.41323000 11.18180000
7201 1 11.53490000 14.01670000 0.43782400
7202 2 12.47860000 14.56540000 1.04538000
7203 2 11.13410000 12.71600000 0.52915400
7204 2 10.75380000 14.54170000 43.21520000
7205 1 9.83433000 12.46060000 43.69000000
7206 1 9.75135000 13.58170000 42.73600000
7207 3 9.02203000 12.53360000 0.75021800
7208 3 9.69814000 11.42530000 43.28830000
7209 3 8.78105000 14.03330000 42.66030000
7210 3 10.13700000 13.23080000 41.82630000
7211 1 22.33830000 24.74770000 3.02779000
7212 2 22.32940000 25.51490000 2.03236000
7213 2 22.88960000 23.57310000 3.09494000
7214 2 21.77240000 25.05340000 4.19265000
7215 1 22.74240000 23.03350000 4.34061000
7216 1 21.95210000 24.06450000 5.13075000
7217 3 23.72220000 22.89760000 4.75894000
7218 3 22.18520000 22.03780000 4.25372000
7219 3 22.37780000 24.48970000 6.02680000
7220 3 20.95080000 23.74030000 5.35782000
7221 1 2.86037000 9.49132000 31.71100000
7222 2 2.03559000 9.86891000 32.61860000
7223 2 4.01289000 10.14730000 31.40200000
7224 2 2.63521000 8.44951000 30.93090000
7225 1 4.64838000 9.59799000 30.30980000
7226 1 3.86227000 8.28314000 30.15040000
7227 3 5.71067000 9.41237000 30.21690000
7228 3 4.36283000 10.13520000 29.40690000
7229 3 4.39153000 7.53939000 30.63410000
7230 3 3.74978000 7.98589000 29.13380000
7231 1 39.91150000 39.82540000 35.77550000
7232 2 39.05650000 39.05160000 35.29670000
7233 2 39.87430000 40.35270000 36.96590000
7234 2 40.97050000 40.26150000 35.14500000
7235 1 40.77310000 41.41620000 37.09830000
7236 1 41.64010000 41.22390000 35.86400000
7237 3 41.37400000 41.27170000 38.02910000
7238 3 40.28090000 42.38820000 37.19650000
7239 3 42.64100000 40.77790000 36.14430000
7240 3 41.64150000 42.16620000 35.34180000
7241 1 39.15430000 39.23430000 13.02080000
7242 2 38.45500000 38.20900000 13.08000000
7243 2 40.18820000 39.31970000 12.28940000
7244 2 38.99980000 40.25700000 13.77890000
7245 1 40.92830000 40.54190000 12.60950000
7246 1 39.96950000 41.28630000 13.60050000
7247 3 41.33450000 41.13210000 11.78350000
7248 3 41.84900000 40.21070000 13.10820000
7249 3 39.69130000 42.30050000 13.17530000
7250 3 40.42900000 41.45520000 14.55550000
7251 1 35.27980000 37.57320000 7.63049000
7252 2 35.85700000 38.44370000 8.24742000
7253 2 33.98700000 37.31500000 7.67258000
7254 2 35.92890000 36.49790000 7.04270000
7255 1 33.67240000 36.19020000 6.92998000
7256 1 34.98650000 35.66020000 6.44910000
7257 3 33.08720000 36.36610000 6.01354000
7258 3 33.19650000 35.53880000 7.61089000
7259 3 35.12050000 35.70940000 5.37553000
7260 3 35.09320000 34.62720000 6.85353000
7261 1 15.78420000 12.59220000 10.21650000
7262 2 15.17040000 12.53900000 9.12797000
7263 2 15.81660000 13.60340000 11.05630000
7264 2 16.62260000 11.59210000 10.63520000
7265 1 16.65470000 13.25320000 12.17110000
7266 1 17.19120000 11.82220000 11.93100000
7267 3 16.24190000 13.46830000 13.06560000
7268 3 17.50660000 13.92820000 12.23910000
7269 3 16.82670000 11.02330000 12.57890000
7270 3 18.28310000 11.81660000 11.93860000
7271 1 39.75180000 22.51630000 36.59170000
7272 2 38.59030000 22.97830000 36.75090000
7273 2 40.87240000 23.22220000 36.56370000
7274 2 40.03380000 21.38070000 36.14660000
7275 1 41.96080000 22.54480000 36.07490000
7276 1 41.38470000 21.19420000 35.78900000
7277 3 42.77060000 22.51020000 36.78600000
7278 3 42.38740000 23.06300000 35.21670000
7279 3 41.77180000 20.38570000 36.42950000
7280 3 41.73280000 20.94880000 34.82920000
7281 1 9.16015000 13.48010000 16.84230000
7282 2 9.01154000 14.58400000 16.32790000
7283 2 10.08440000 13.15820000 17.73450000
7284 2 8.29003000 12.55720000 16.59690000
7285 1 9.90395000 11.83620000 18.16220000
7286 1 8.83555000 11.33610000 17.06010000
7287 3 9.52245000 11.91520000 19.21690000
7288 3 10.79290000 11.30990000 18.15690000
7289 3 8.06403000 10.60520000 17.43300000
7290 3 9.34215000 10.86880000 16.19520000
7291 1 14.86240000 18.30360000 29.80370000
7292 2 15.22950000 19.11190000 30.62280000
7293 2 15.66950000 17.70640000 28.90150000
7294 2 13.55740000 18.07790000 29.48980000
7295 1 14.96670000 16.84970000 28.07610000
7296 1 13.51820000 17.03230000 28.51390000
7297 3 15.27790000 15.88230000 28.40460000
7298 3 14.99630000 17.10920000 26.99310000
7299 3 13.11930000 16.15340000 28.97590000
7300 3 12.96770000 17.28370000 27.66960000
7301 1 2.86770000 10.67690000 3.47705000
7302 2 2.44406000 9.68882000 2.90146000
7303 2 2.50505000 11.07750000 4.70454000
7304 2 3.69538000 11.60240000 2.98205000
7305 1 3.14442000 12.28660000 5.05459000
7306 1 3.95057000 12.70590000 3.86019000
7307 3 3.71945000 12.19140000 5.93019000
7308 3 2.29535000 12.95200000 5.20983000
7309 3 5.03640000 12.70480000 4.08077000
7310 3 3.67738000 13.73680000 3.42232000
7311 1 29.93280000 21.64730000 8.83512000
7312 2 29.30830000 22.68990000 8.73416000
7313 2 29.73190000 20.74480000 9.73903000
7314 2 30.75270000 21.10560000 7.92096000
7315 1 30.71780000 19.71080000 9.66806000
7316 1 31.04980000 19.73860000 8.22673000
7317 3 30.34580000 18.76280000 10.06550000
7318 3 31.58710000 19.98610000 10.32670000
7319 3 30.35640000 19.03100000 7.72320000
7320 3 32.03550000 19.29780000 7.95921000
7321 1 38.28170000 34.13930000 41.44350000
7322 2 37.83430000 34.76270000 40.44620000
7323 2 39.54170000 33.64340000 41.65260000
7324 2 37.52730000 33.83880000 42.43700000
7325 1 39.60630000 33.08390000 42.89850000
7326 1 38.13740000 32.94350000 43.29960000
7327 3 40.10510000 33.83430000 43.55410000
7328 3 40.12370000 32.15900000 42.93840000
7329 3 37.97950000 33.19960000 0.68151100
7330 3 37.79720000 31.88840000 43.14530000
7331 1 2.25046000 30.08330000 8.90908000
7332 2 1.20513000 29.45390000 8.64296000
7333 2 2.52051000 30.34450000 10.12010000
7334 2 3.19237000 30.47150000 8.02878000
7335 1 3.76607000 31.06990000 10.17510000
7336 1 4.24860000 31.07230000 8.68896000
7337 3 4.38227000 30.62280000 10.94920000
7338 3 3.54197000 32.09260000 10.54070000
7339 3 5.08168000 30.44940000 8.49844000
7340 3 4.45926000 32.10200000 8.27836000
7341 1 1.01634000 43.30070000 37.41380000
7342 2 0.18231700 42.46610000 37.77770000
7343 2 2.28847000 43.31490000 37.76810000
7344 2 0.81211500 0.66322000 36.62580000
7345 1 2.97795000 0.63578300 37.13380000
7346 1 1.88611000 1.56535000 36.67300000
7347 3 3.46340000 0.30206000 36.26450000
7348 3 3.82571000 1.09001000 37.75550000
7349 3 2.11677000 2.06138000 35.64850000
7350 3 1.74097000 2.42682000 37.39290000
7351 1 42.04520000 30.12530000 34.94450000
7352 2 41.37480000 29.07590000 35.07440000
7353 2 41.49710000 31.37310000 34.73250000
7354 2 43.33550000 30.29880000 35.00640000
7355 1 42.44110000 32.40900000 34.62640000
7356 1 43.72430000 31.62060000 34.75090000
7357 3 42.26540000 33.11110000 35.48590000
7358 3 42.32890000 32.97780000 33.63500000
7359 3 0.73354100 32.01570000 35.51770000
7360 3 0.58747200 31.61270000 33.80210000
7361 1 29.94160000 8.56511000 29.88420000
7362 2 29.14440000 8.87693000 30.80590000
7363 2 30.26040000 9.39080000 28.88700000
7364 2 30.65930000 7.46486000 29.71940000
7365 1 31.12710000 8.79732000 27.90740000
7366 1 31.11660000 7.32919000 28.38380000
7367 3 32.08570000 9.37704000 28.01610000
7368 3 30.61480000 8.89199000 26.93470000
7369 3 32.06630000 6.85609000 28.22100000
7370 3 30.38500000 6.67244000 27.91090000
7371 1 4.67145000 8.54517000 16.65430000
7372 2 4.84934000 7.42682000 16.14990000
7373 2 4.83793000 9.68370000 16.03950000
7374 2 4.34001000 8.77692000 17.84480000
7375 1 4.32731000 10.80710000 16.76500000
7376 1 4.39471000 10.16880000 18.14090000
7377 3 3.30597000 11.07300000 16.57930000
7378 3 4.90728000 11.74700000 16.72360000
7379 3 3.56657000 10.21920000 18.86660000
7380 3 5.27802000 10.53600000 18.70250000
7381 1 4.71580000 26.52410000 21.29390000
7382 2 3.79271000 27.33760000 21.30900000
7383 2 5.48009000 26.24360000 22.39790000
7384 2 5.30248000 26.04830000 20.25380000
7385 1 6.53409000 25.40930000 22.04220000
7386 1 6.15787000 25.03500000 20.57060000
7387 3 6.58714000 24.53920000 22.61380000
7388 3 7.47612000 25.94650000 22.07590000
7389 3 5.69508000 24.05970000 20.63350000
7390 3 7.02711000 25.09740000 19.92570000
7391 1 33.35340000 31.94580000 32.13990000
7392 2 32.26910000 32.50780000 32.08700000
7393 2 34.46780000 32.23240000 31.47510000
7394 2 33.58840000 30.88390000 32.97650000
7395 1 35.48760000 31.47960000 31.89780000
7396 1 34.82890000 30.35950000 32.65340000
7397 3 36.07430000 32.07900000 32.59410000
7398 3 36.16280000 31.18090000 31.14070000
7399 3 35.50110000 30.08940000 33.50270000
7400 3 34.78070000 29.42480000 32.09000000
7401 1 29.25080000 38.46070000 0.81302700
7402 2 29.47110000 39.57310000 0.41935600
7403 2 28.96730000 38.10710000 2.07974000
7404 2 29.45690000 37.27100000 0.18993300
7405 1 29.02540000 36.70320000 2.27058000
7406 1 28.81850000 36.22790000 0.88798200
7407 3 28.27200000 36.38820000 2.97333000
7408 3 30.04230000 36.46570000 2.71110000
7409 3 27.84950000 36.00870000 0.56911700
7410 3 29.34320000 35.26930000 0.74723200
7411 1 13.39670000 13.84870000 39.04660000
7412 2 12.94050000 14.78880000 39.66960000
7413 2 14.62860000 13.43520000 39.18440000
7414 2 12.89260000 13.27590000 38.01820000
7415 1 14.95260000 12.34670000 38.37430000
7416 1 13.71740000 12.20650000 37.48150000
7417 3 15.08090000 11.39390000 38.84900000
7418 3 15.81960000 12.60190000 37.69840000
7419 3 13.27920000 11.27370000 37.71920000
7420 3 13.71990000 12.34240000 36.40950000
7421 1 20.33460000 14.83660000 24.73790000
7422 2 20.90150000 14.77300000 23.65860000
7423 2 19.31240000 14.07690000 25.06530000
7424 2 20.60280000 15.63590000 25.77580000
7425 1 18.74630000 14.44590000 26.27910000
7426 1 19.85280000 15.28510000 26.92420000
7427 3 18.51610000 13.56740000 26.88550000
7428 3 17.91990000 15.07870000 26.10580000
7429 3 20.38350000 14.78300000 27.73920000
7430 3 19.58100000 16.24360000 27.33300000
7431 1 2.94934000 0.17866200 21.51950000
7432 2 4.11047000 43.69320000 21.81790000
7433 2 2.06493000 42.96000000 21.38830000
7434 2 2.30594000 1.33692000 21.34630000
7435 1 0.76577800 43.42920000 21.58340000
7436 1 0.93086700 1.16737000 21.00790000
7437 3 0.50428900 43.48660000 22.65330000
7438 3 43.65380000 42.92630000 20.99950000
7439 3 0.33340000 1.96409000 21.41390000
7440 3 0.81863600 1.16446000 19.89610000
7441 1 4.06623000 4.32364000 36.70360000
7442 2 4.49772000 3.13111000 36.51250000
7443 2 4.58946000 5.17533000 37.62500000
7444 2 3.06367000 4.90517000 36.05390000
7445 1 3.82011000 6.28920000 37.72780000
7446 1 2.89972000 6.24756000 36.52760000
7447 3 4.52116000 7.18015000 37.71340000
7448 3 3.17672000 6.34498000 38.65860000
7449 3 3.02616000 6.97366000 35.68740000
7450 3 1.88073000 6.42102000 36.75120000
7451 1 43.20990000 15.64150000 19.48240000
7452 2 0.64768600 15.77520000 19.79190000
7453 2 42.22440000 16.15060000 20.08780000
7454 2 42.82870000 15.10250000 18.32800000
7455 1 40.97560000 15.86190000 19.45790000
7456 1 41.45480000 14.97070000 18.31240000
7457 3 40.48080000 16.77350000 19.02310000
7458 3 40.31790000 15.29220000 20.13340000
7459 3 41.19760000 15.28760000 17.26520000
7460 3 41.10860000 13.90730000 18.35590000
7461 1 30.63690000 6.18525000 12.04660000
7462 2 30.80180000 7.42448000 12.28200000
7463 2 31.60140000 5.30530000 11.77440000
7464 2 29.54460000 5.59516000 11.96060000
7465 1 31.15050000 4.08322000 11.37380000
7466 1 29.71490000 4.18177000 11.94330000
7467 3 31.57740000 3.28334000 11.98510000
7468 3 31.17250000 3.93320000 10.27550000
7469 3 29.72430000 3.78053000 12.96270000
7470 3 28.94030000 3.74573000 11.32130000
7471 1 36.05120000 17.61750000 26.43120000
7472 2 36.40570000 18.73600000 26.81990000
7473 2 36.08100000 16.49640000 27.09970000
7474 2 35.53850000 17.37830000 25.21430000
7475 1 35.38910000 15.45920000 26.43820000
7476 1 35.36770000 16.04150000 24.99540000
7477 3 34.37220000 15.34410000 26.84180000
7478 3 35.70230000 14.45300000 26.51310000
7479 3 34.36210000 15.82630000 24.63600000
7480 3 36.13300000 15.50010000 24.41960000
7481 1 0.93581700 41.37170000 14.75910000
7482 2 0.75476100 40.78100000 15.84740000
7483 2 2.12297000 41.67400000 14.19890000
7484 2 43.66740000 41.67390000 13.91530000
7485 1 1.88942000 42.10490000 12.89400000
7486 1 0.44293800 42.45480000 12.80460000
7487 3 2.03717000 41.27560000 12.19160000
7488 3 2.53045000 42.96420000 12.60550000
7489 3 43.61240000 42.19130000 11.89360000
7490 3 0.33955200 43.56190000 13.06930000
7491 1 27.20540000 5.12487000 31.49750000
7492 2 27.90670000 4.19627000 31.93950000
7493 2 27.37130000 5.66954000 30.30470000
7494 2 26.09330000 5.61433000 32.05650000
7495 1 26.31890000 6.60226000 30.12380000
7496 1 25.60340000 6.76512000 31.39340000
7497 3 25.50350000 6.31843000 29.43610000
7498 3 26.80210000 7.54455000 29.81180000
7499 3 24.53210000 6.87165000 31.43290000
7500 3 26.05840000 7.55703000 31.93500000

Masses

   1       12.01
   2        16.0
   3       1.008
